Minimize
  obj: TotalCost_Weighted + TotalLatency_Weighted

Subject To
  w_cost: TotalCost_Weighted - 0.5 TotalCost = 0
  w_lat: TotalLatency_Weighted - 50.0 TotalLatency = 0
  global_budget: TotalCost <= 4750.0
  lat_lin_w0_c0: x_w0_c0 + y_w0_c0 >= 0.0161
  lat_lin_w0_c1: x_w0_c1 + y_w0_c1 >= 0.2173
  lat_lin_w0_c2: x_w0_c2 + y_w0_c2 >= 0.2986
  lat_lin_w0_c3: x_w0_c3 + y_w0_c3 >= 0.1748
  lat_lin_w0_c4: x_w0_c4 + y_w0_c4 >= 0.2866
  lat_lin_w0_c5: x_w0_c5 + y_w0_c5 >= 0.1880
  lat_lin_w0_c6: x_w0_c6 + y_w0_c6 >= 0.0822
  lat_lin_w0_c7: x_w0_c7 + y_w0_c7 >= 0.0493
  lat_lin_w0_c8: x_w0_c8 + y_w0_c8 >= 0.0558
  lat_lin_w0_c9: x_w0_c9 + y_w0_c9 >= 0.1201
  lat_lin_w0_c10: x_w0_c10 + y_w0_c10 >= 0.2768
  lat_lin_w0_c11: x_w0_c11 + y_w0_c11 >= 0.1465
  lat_lin_w0_c12: x_w0_c12 + y_w0_c12 >= 0.1210
  lat_lin_w0_c13: x_w0_c13 + y_w0_c13 >= 0.2850
  lat_lin_w0_c14: x_w0_c14 + y_w0_c14 >= 0.2993
  lat_lin_w0_c15: x_w0_c15 + y_w0_c15 >= 0.2478
  lat_lin_w0_c16: x_w0_c16 + y_w0_c16 >= 0.2637
  lat_lin_w0_c17: x_w0_c17 + y_w0_c17 >= 0.2712
  lat_lin_w0_c18: x_w0_c18 + y_w0_c18 >= 0.1062
  lat_lin_w0_c19: x_w0_c19 + y_w0_c19 >= 0.2074
  lat_lin_w0_c20: x_w0_c20 + y_w0_c20 >= 0.0233
  lat_lin_w0_c21: x_w0_c21 + y_w0_c21 >= 0.0619
  lat_lin_w0_c22: x_w0_c22 + y_w0_c22 >= 0.1051
  lat_lin_w0_c23: x_w0_c23 + y_w0_c23 >= 0.0151
  lat_lin_w0_c24: x_w0_c24 + y_w0_c24 >= 0.0810
  demand_w0: x_w0_c0 + x_w0_c1 + x_w0_c2 + x_w0_c3 + x_w0_c4 + x_w0_c5 + x_w0_c6 + x_w0_c7 + x_w0_c8 + x_w0_c9 + x_w0_c10 + x_w0_c11 + x_w0_c12 + x_w0_c13 + x_w0_c14 + x_w0_c15 + x_w0_c16 + x_w0_c17 + x_w0_c18 + x_w0_c19 + x_w0_c20 + x_w0_c21 + x_w0_c22 + x_w0_c23 + x_w0_c24 = 4
  lat_lin_w1_c0: x_w1_c0 + y_w1_c0 >= 0.8206
  lat_lin_w1_c1: x_w1_c1 + y_w1_c1 >= 0.8964
  lat_lin_w1_c2: x_w1_c2 + y_w1_c2 >= 0.4725
  lat_lin_w1_c3: x_w1_c3 + y_w1_c3 >= 0.3608
  lat_lin_w1_c4: x_w1_c4 + y_w1_c4 >= 1.0667
  lat_lin_w1_c5: x_w1_c5 + y_w1_c5 >= 0.4497
  lat_lin_w1_c6: x_w1_c6 + y_w1_c6 >= 0.4219
  lat_lin_w1_c7: x_w1_c7 + y_w1_c7 >= 0.3783
  lat_lin_w1_c8: x_w1_c8 + y_w1_c8 >= 0.5882
  lat_lin_w1_c9: x_w1_c9 + y_w1_c9 >= 0.3976
  lat_lin_w1_c10: x_w1_c10 + y_w1_c10 >= 0.9203
  lat_lin_w1_c11: x_w1_c11 + y_w1_c11 >= 0.7217
  lat_lin_w1_c12: x_w1_c12 + y_w1_c12 >= 1.0894
  lat_lin_w1_c13: x_w1_c13 + y_w1_c13 >= 0.0242
  lat_lin_w1_c14: x_w1_c14 + y_w1_c14 >= 0.5272
  lat_lin_w1_c15: x_w1_c15 + y_w1_c15 >= 0.1786
  lat_lin_w1_c16: x_w1_c16 + y_w1_c16 >= 0.2139
  lat_lin_w1_c17: x_w1_c17 + y_w1_c17 >= 0.3085
  lat_lin_w1_c18: x_w1_c18 + y_w1_c18 >= 0.2884
  lat_lin_w1_c19: x_w1_c19 + y_w1_c19 >= 0.9073
  lat_lin_w1_c20: x_w1_c20 + y_w1_c20 >= 0.8997
  lat_lin_w1_c21: x_w1_c21 + y_w1_c21 >= 0.3160
  lat_lin_w1_c22: x_w1_c22 + y_w1_c22 >= 0.5327
  lat_lin_w1_c23: x_w1_c23 + y_w1_c23 >= 0.7616
  lat_lin_w1_c24: x_w1_c24 + y_w1_c24 >= 0.4577
  demand_w1: x_w1_c0 + x_w1_c1 + x_w1_c2 + x_w1_c3 + x_w1_c4 + x_w1_c5 + x_w1_c6 + x_w1_c7 + x_w1_c8 + x_w1_c9 + x_w1_c10 + x_w1_c11 + x_w1_c12 + x_w1_c13 + x_w1_c14 + x_w1_c15 + x_w1_c16 + x_w1_c17 + x_w1_c18 + x_w1_c19 + x_w1_c20 + x_w1_c21 + x_w1_c22 + x_w1_c23 + x_w1_c24 = 14
  lat_lin_w2_c0: x_w2_c0 + y_w2_c0 >= 0.9669
  lat_lin_w2_c1: x_w2_c1 + y_w2_c1 >= 0.2569
  lat_lin_w2_c2: x_w2_c2 + y_w2_c2 >= 0.7333
  lat_lin_w2_c3: x_w2_c3 + y_w2_c3 >= 0.5108
  lat_lin_w2_c4: x_w2_c4 + y_w2_c4 >= 0.2625
  lat_lin_w2_c5: x_w2_c5 + y_w2_c5 >= 0.1786
  lat_lin_w2_c6: x_w2_c6 + y_w2_c6 >= 0.9089
  lat_lin_w2_c7: x_w2_c7 + y_w2_c7 >= 0.2962
  lat_lin_w2_c8: x_w2_c8 + y_w2_c8 >= 0.0431
  lat_lin_w2_c9: x_w2_c9 + y_w2_c9 >= 0.8138
  lat_lin_w2_c10: x_w2_c10 + y_w2_c10 >= 0.4668
  lat_lin_w2_c11: x_w2_c11 + y_w2_c11 >= 0.0061
  lat_lin_w2_c12: x_w2_c12 + y_w2_c12 >= 0.7439
  lat_lin_w2_c13: x_w2_c13 + y_w2_c13 >= 0.8097
  lat_lin_w2_c14: x_w2_c14 + y_w2_c14 >= 0.3637
  lat_lin_w2_c15: x_w2_c15 + y_w2_c15 >= 0.0064
  lat_lin_w2_c16: x_w2_c16 + y_w2_c16 >= 0.4320
  lat_lin_w2_c17: x_w2_c17 + y_w2_c17 >= 0.6459
  lat_lin_w2_c18: x_w2_c18 + y_w2_c18 >= 0.2139
  lat_lin_w2_c19: x_w2_c19 + y_w2_c19 >= 0.9074
  lat_lin_w2_c20: x_w2_c20 + y_w2_c20 >= 0.1976
  lat_lin_w2_c21: x_w2_c21 + y_w2_c21 >= 0.7035
  lat_lin_w2_c22: x_w2_c22 + y_w2_c22 >= 0.4811
  lat_lin_w2_c23: x_w2_c23 + y_w2_c23 >= 0.9383
  lat_lin_w2_c24: x_w2_c24 + y_w2_c24 >= 0.1126
  demand_w2: x_w2_c0 + x_w2_c1 + x_w2_c2 + x_w2_c3 + x_w2_c4 + x_w2_c5 + x_w2_c6 + x_w2_c7 + x_w2_c8 + x_w2_c9 + x_w2_c10 + x_w2_c11 + x_w2_c12 + x_w2_c13 + x_w2_c14 + x_w2_c15 + x_w2_c16 + x_w2_c17 + x_w2_c18 + x_w2_c19 + x_w2_c20 + x_w2_c21 + x_w2_c22 + x_w2_c23 + x_w2_c24 = 12
  lat_lin_w3_c0: x_w3_c0 + y_w3_c0 >= 0.2464
  lat_lin_w3_c1: x_w3_c1 + y_w3_c1 >= 0.0185
  lat_lin_w3_c2: x_w3_c2 + y_w3_c2 >= 0.2071
  lat_lin_w3_c3: x_w3_c3 + y_w3_c3 >= 0.3286
  lat_lin_w3_c4: x_w3_c4 + y_w3_c4 >= 0.2365
  lat_lin_w3_c5: x_w3_c5 + y_w3_c5 >= 0.1584
  lat_lin_w3_c6: x_w3_c6 + y_w3_c6 >= 0.0724
  lat_lin_w3_c7: x_w3_c7 + y_w3_c7 >= 0.2495
  lat_lin_w3_c8: x_w3_c8 + y_w3_c8 >= 0.1757
  lat_lin_w3_c9: x_w3_c9 + y_w3_c9 >= 0.0422
  lat_lin_w3_c10: x_w3_c10 + y_w3_c10 >= 0.0870
  lat_lin_w3_c11: x_w3_c11 + y_w3_c11 >= 0.2705
  lat_lin_w3_c12: x_w3_c12 + y_w3_c12 >= 0.0802
  lat_lin_w3_c13: x_w3_c13 + y_w3_c13 >= 0.2783
  lat_lin_w3_c14: x_w3_c14 + y_w3_c14 >= 0.1303
  lat_lin_w3_c15: x_w3_c15 + y_w3_c15 >= 0.1402
  lat_lin_w3_c16: x_w3_c16 + y_w3_c16 >= 0.1221
  lat_lin_w3_c17: x_w3_c17 + y_w3_c17 >= 0.2539
  lat_lin_w3_c18: x_w3_c18 + y_w3_c18 >= 0.2000
  lat_lin_w3_c19: x_w3_c19 + y_w3_c19 >= 0.3307
  lat_lin_w3_c20: x_w3_c20 + y_w3_c20 >= 0.0808
  lat_lin_w3_c21: x_w3_c21 + y_w3_c21 >= 0.0144
  lat_lin_w3_c22: x_w3_c22 + y_w3_c22 >= 0.2385
  lat_lin_w3_c23: x_w3_c23 + y_w3_c23 >= 0.0184
  lat_lin_w3_c24: x_w3_c24 + y_w3_c24 >= 0.0193
  demand_w3: x_w3_c0 + x_w3_c1 + x_w3_c2 + x_w3_c3 + x_w3_c4 + x_w3_c5 + x_w3_c6 + x_w3_c7 + x_w3_c8 + x_w3_c9 + x_w3_c10 + x_w3_c11 + x_w3_c12 + x_w3_c13 + x_w3_c14 + x_w3_c15 + x_w3_c16 + x_w3_c17 + x_w3_c18 + x_w3_c19 + x_w3_c20 + x_w3_c21 + x_w3_c22 + x_w3_c23 + x_w3_c24 = 4
  lat_lin_w4_c0: x_w4_c0 + y_w4_c0 >= 0.1000
  lat_lin_w4_c1: x_w4_c1 + y_w4_c1 >= 0.6330
  lat_lin_w4_c2: x_w4_c2 + y_w4_c2 >= 0.7027
  lat_lin_w4_c3: x_w4_c3 + y_w4_c3 >= 0.0833
  lat_lin_w4_c4: x_w4_c4 + y_w4_c4 >= 0.6394
  lat_lin_w4_c5: x_w4_c5 + y_w4_c5 >= 0.6402
  lat_lin_w4_c6: x_w4_c6 + y_w4_c6 >= 0.5591
  lat_lin_w4_c7: x_w4_c7 + y_w4_c7 >= 0.4356
  lat_lin_w4_c8: x_w4_c8 + y_w4_c8 >= 0.3197
  lat_lin_w4_c9: x_w4_c9 + y_w4_c9 >= 0.0798
  lat_lin_w4_c10: x_w4_c10 + y_w4_c10 >= 0.6428
  lat_lin_w4_c11: x_w4_c11 + y_w4_c11 >= 0.0578
  lat_lin_w4_c12: x_w4_c12 + y_w4_c12 >= 0.1546
  lat_lin_w4_c13: x_w4_c13 + y_w4_c13 >= 0.4563
  lat_lin_w4_c14: x_w4_c14 + y_w4_c14 >= 0.4570
  lat_lin_w4_c15: x_w4_c15 + y_w4_c15 >= 0.2329
  lat_lin_w4_c16: x_w4_c16 + y_w4_c16 >= 0.7203
  lat_lin_w4_c17: x_w4_c17 + y_w4_c17 >= 0.3319
  lat_lin_w4_c18: x_w4_c18 + y_w4_c18 >= 0.7180
  lat_lin_w4_c19: x_w4_c19 + y_w4_c19 >= 0.6205
  lat_lin_w4_c20: x_w4_c20 + y_w4_c20 >= 0.0603
  lat_lin_w4_c21: x_w4_c21 + y_w4_c21 >= 0.6620
  lat_lin_w4_c22: x_w4_c22 + y_w4_c22 >= 0.7392
  lat_lin_w4_c23: x_w4_c23 + y_w4_c23 >= 0.4372
  lat_lin_w4_c24: x_w4_c24 + y_w4_c24 >= 0.5163
  demand_w4: x_w4_c0 + x_w4_c1 + x_w4_c2 + x_w4_c3 + x_w4_c4 + x_w4_c5 + x_w4_c6 + x_w4_c7 + x_w4_c8 + x_w4_c9 + x_w4_c10 + x_w4_c11 + x_w4_c12 + x_w4_c13 + x_w4_c14 + x_w4_c15 + x_w4_c16 + x_w4_c17 + x_w4_c18 + x_w4_c19 + x_w4_c20 + x_w4_c21 + x_w4_c22 + x_w4_c23 + x_w4_c24 = 11
  lat_lin_w5_c0: x_w5_c0 + y_w5_c0 >= 0.4183
  lat_lin_w5_c1: x_w5_c1 + y_w5_c1 >= 0.1362
  lat_lin_w5_c2: x_w5_c2 + y_w5_c2 >= 0.9287
  lat_lin_w5_c3: x_w5_c3 + y_w5_c3 >= 0.2632
  lat_lin_w5_c4: x_w5_c4 + y_w5_c4 >= 0.1647
  lat_lin_w5_c5: x_w5_c5 + y_w5_c5 >= 0.0451
  lat_lin_w5_c6: x_w5_c6 + y_w5_c6 >= 0.3305
  lat_lin_w5_c7: x_w5_c7 + y_w5_c7 >= 0.4606
  lat_lin_w5_c8: x_w5_c8 + y_w5_c8 >= 0.6903
  lat_lin_w5_c9: x_w5_c9 + y_w5_c9 >= 0.6488
  lat_lin_w5_c10: x_w5_c10 + y_w5_c10 >= 0.0420
  lat_lin_w5_c11: x_w5_c11 + y_w5_c11 >= 0.2243
  lat_lin_w5_c12: x_w5_c12 + y_w5_c12 >= 0.4817
  lat_lin_w5_c13: x_w5_c13 + y_w5_c13 >= 0.6508
  lat_lin_w5_c14: x_w5_c14 + y_w5_c14 >= 0.9574
  lat_lin_w5_c15: x_w5_c15 + y_w5_c15 >= 0.7440
  lat_lin_w5_c16: x_w5_c16 + y_w5_c16 >= 0.1187
  lat_lin_w5_c17: x_w5_c17 + y_w5_c17 >= 0.3840
  lat_lin_w5_c18: x_w5_c18 + y_w5_c18 >= 0.8670
  lat_lin_w5_c19: x_w5_c19 + y_w5_c19 >= 0.1121
  lat_lin_w5_c20: x_w5_c20 + y_w5_c20 >= 0.2201
  lat_lin_w5_c21: x_w5_c21 + y_w5_c21 >= 0.2281
  lat_lin_w5_c22: x_w5_c22 + y_w5_c22 >= 0.6048
  lat_lin_w5_c23: x_w5_c23 + y_w5_c23 >= 0.9128
  lat_lin_w5_c24: x_w5_c24 + y_w5_c24 >= 0.3657
  demand_w5: x_w5_c0 + x_w5_c1 + x_w5_c2 + x_w5_c3 + x_w5_c4 + x_w5_c5 + x_w5_c6 + x_w5_c7 + x_w5_c8 + x_w5_c9 + x_w5_c10 + x_w5_c11 + x_w5_c12 + x_w5_c13 + x_w5_c14 + x_w5_c15 + x_w5_c16 + x_w5_c17 + x_w5_c18 + x_w5_c19 + x_w5_c20 + x_w5_c21 + x_w5_c22 + x_w5_c23 + x_w5_c24 = 11
  lat_lin_w6_c0: x_w6_c0 + y_w6_c0 >= 0.7641
  lat_lin_w6_c1: x_w6_c1 + y_w6_c1 >= 0.3144
  lat_lin_w6_c2: x_w6_c2 + y_w6_c2 >= 0.0204
  lat_lin_w6_c3: x_w6_c3 + y_w6_c3 >= 0.1049
  lat_lin_w6_c4: x_w6_c4 + y_w6_c4 >= 1.0476
  lat_lin_w6_c5: x_w6_c5 + y_w6_c5 >= 0.3076
  lat_lin_w6_c6: x_w6_c6 + y_w6_c6 >= 0.3708
  lat_lin_w6_c7: x_w6_c7 + y_w6_c7 >= 0.1734
  lat_lin_w6_c8: x_w6_c8 + y_w6_c8 >= 0.0626
  lat_lin_w6_c9: x_w6_c9 + y_w6_c9 >= 0.6448
  lat_lin_w6_c10: x_w6_c10 + y_w6_c10 >= 0.9422
  lat_lin_w6_c11: x_w6_c11 + y_w6_c11 >= 0.1735
  lat_lin_w6_c12: x_w6_c12 + y_w6_c12 >= 0.6343
  lat_lin_w6_c13: x_w6_c13 + y_w6_c13 >= 0.9326
  lat_lin_w6_c14: x_w6_c14 + y_w6_c14 >= 0.3754
  lat_lin_w6_c15: x_w6_c15 + y_w6_c15 >= 0.5388
  lat_lin_w6_c16: x_w6_c16 + y_w6_c16 >= 0.2737
  lat_lin_w6_c17: x_w6_c17 + y_w6_c17 >= 0.5333
  lat_lin_w6_c18: x_w6_c18 + y_w6_c18 >= 0.2039
  lat_lin_w6_c19: x_w6_c19 + y_w6_c19 >= 0.1916
  lat_lin_w6_c20: x_w6_c20 + y_w6_c20 >= 0.4887
  lat_lin_w6_c21: x_w6_c21 + y_w6_c21 >= 0.3593
  lat_lin_w6_c22: x_w6_c22 + y_w6_c22 >= 0.9231
  lat_lin_w6_c23: x_w6_c23 + y_w6_c23 >= 0.6581
  lat_lin_w6_c24: x_w6_c24 + y_w6_c24 >= 0.9610
  demand_w6: x_w6_c0 + x_w6_c1 + x_w6_c2 + x_w6_c3 + x_w6_c4 + x_w6_c5 + x_w6_c6 + x_w6_c7 + x_w6_c8 + x_w6_c9 + x_w6_c10 + x_w6_c11 + x_w6_c12 + x_w6_c13 + x_w6_c14 + x_w6_c15 + x_w6_c16 + x_w6_c17 + x_w6_c18 + x_w6_c19 + x_w6_c20 + x_w6_c21 + x_w6_c22 + x_w6_c23 + x_w6_c24 = 12
  lat_lin_w7_c0: x_w7_c0 + y_w7_c0 >= 0.0520
  lat_lin_w7_c1: x_w7_c1 + y_w7_c1 >= 0.2297
  lat_lin_w7_c2: x_w7_c2 + y_w7_c2 >= 0.1059
  lat_lin_w7_c3: x_w7_c3 + y_w7_c3 >= 0.0004
  lat_lin_w7_c4: x_w7_c4 + y_w7_c4 >= 0.2073
  lat_lin_w7_c5: x_w7_c5 + y_w7_c5 >= 0.2691
  lat_lin_w7_c6: x_w7_c6 + y_w7_c6 >= 0.0879
  lat_lin_w7_c7: x_w7_c7 + y_w7_c7 >= 0.1369
  lat_lin_w7_c8: x_w7_c8 + y_w7_c8 >= 0.1595
  lat_lin_w7_c9: x_w7_c9 + y_w7_c9 >= 0.1706
  lat_lin_w7_c10: x_w7_c10 + y_w7_c10 >= 0.0807
  lat_lin_w7_c11: x_w7_c11 + y_w7_c11 >= 0.0631
  lat_lin_w7_c12: x_w7_c12 + y_w7_c12 >= 0.0440
  lat_lin_w7_c13: x_w7_c13 + y_w7_c13 >= 0.0838
  lat_lin_w7_c14: x_w7_c14 + y_w7_c14 >= 0.0395
  lat_lin_w7_c15: x_w7_c15 + y_w7_c15 >= 0.2833
  lat_lin_w7_c16: x_w7_c16 + y_w7_c16 >= 0.0780
  lat_lin_w7_c17: x_w7_c17 + y_w7_c17 >= 0.0424
  lat_lin_w7_c18: x_w7_c18 + y_w7_c18 >= 0.0160
  lat_lin_w7_c19: x_w7_c19 + y_w7_c19 >= 0.1641
  lat_lin_w7_c20: x_w7_c20 + y_w7_c20 >= 0.1333
  lat_lin_w7_c21: x_w7_c21 + y_w7_c21 >= 0.1465
  lat_lin_w7_c22: x_w7_c22 + y_w7_c22 >= 0.2834
  lat_lin_w7_c23: x_w7_c23 + y_w7_c23 >= 0.0746
  lat_lin_w7_c24: x_w7_c24 + y_w7_c24 >= 0.0482
  demand_w7: x_w7_c0 + x_w7_c1 + x_w7_c2 + x_w7_c3 + x_w7_c4 + x_w7_c5 + x_w7_c6 + x_w7_c7 + x_w7_c8 + x_w7_c9 + x_w7_c10 + x_w7_c11 + x_w7_c12 + x_w7_c13 + x_w7_c14 + x_w7_c15 + x_w7_c16 + x_w7_c17 + x_w7_c18 + x_w7_c19 + x_w7_c20 + x_w7_c21 + x_w7_c22 + x_w7_c23 + x_w7_c24 = 3
  lat_lin_w8_c0: x_w8_c0 + y_w8_c0 >= 0.1935
  lat_lin_w8_c1: x_w8_c1 + y_w8_c1 >= 0.5445
  lat_lin_w8_c2: x_w8_c2 + y_w8_c2 >= 0.0809
  lat_lin_w8_c3: x_w8_c3 + y_w8_c3 >= 0.3357
  lat_lin_w8_c4: x_w8_c4 + y_w8_c4 >= 0.2084
  lat_lin_w8_c5: x_w8_c5 + y_w8_c5 >= 0.5619
  lat_lin_w8_c6: x_w8_c6 + y_w8_c6 >= 0.3998
  lat_lin_w8_c7: x_w8_c7 + y_w8_c7 >= 0.3169
  lat_lin_w8_c8: x_w8_c8 + y_w8_c8 >= 0.2202
  lat_lin_w8_c9: x_w8_c9 + y_w8_c9 >= 0.2964
  lat_lin_w8_c10: x_w8_c10 + y_w8_c10 >= 0.5740
  lat_lin_w8_c11: x_w8_c11 + y_w8_c11 >= 0.4696
  lat_lin_w8_c12: x_w8_c12 + y_w8_c12 >= 0.5764
  lat_lin_w8_c13: x_w8_c13 + y_w8_c13 >= 0.3045
  lat_lin_w8_c14: x_w8_c14 + y_w8_c14 >= 0.3698
  lat_lin_w8_c15: x_w8_c15 + y_w8_c15 >= 0.3478
  lat_lin_w8_c16: x_w8_c16 + y_w8_c16 >= 0.5937
  lat_lin_w8_c17: x_w8_c17 + y_w8_c17 >= 0.2174
  lat_lin_w8_c18: x_w8_c18 + y_w8_c18 >= 0.0992
  lat_lin_w8_c19: x_w8_c19 + y_w8_c19 >= 0.6834
  lat_lin_w8_c20: x_w8_c20 + y_w8_c20 >= 0.1133
  lat_lin_w8_c21: x_w8_c21 + y_w8_c21 >= 0.4982
  lat_lin_w8_c22: x_w8_c22 + y_w8_c22 >= 0.2851
  lat_lin_w8_c23: x_w8_c23 + y_w8_c23 >= 0.2302
  lat_lin_w8_c24: x_w8_c24 + y_w8_c24 >= 0.4791
  demand_w8: x_w8_c0 + x_w8_c1 + x_w8_c2 + x_w8_c3 + x_w8_c4 + x_w8_c5 + x_w8_c6 + x_w8_c7 + x_w8_c8 + x_w8_c9 + x_w8_c10 + x_w8_c11 + x_w8_c12 + x_w8_c13 + x_w8_c14 + x_w8_c15 + x_w8_c16 + x_w8_c17 + x_w8_c18 + x_w8_c19 + x_w8_c20 + x_w8_c21 + x_w8_c22 + x_w8_c23 + x_w8_c24 = 9
  lat_lin_w9_c0: x_w9_c0 + y_w9_c0 >= 0.2180
  lat_lin_w9_c1: x_w9_c1 + y_w9_c1 >= 0.7919
  lat_lin_w9_c2: x_w9_c2 + y_w9_c2 >= 0.6622
  lat_lin_w9_c3: x_w9_c3 + y_w9_c3 >= 0.7571
  lat_lin_w9_c4: x_w9_c4 + y_w9_c4 >= 0.4610
  lat_lin_w9_c5: x_w9_c5 + y_w9_c5 >= 0.5417
  lat_lin_w9_c6: x_w9_c6 + y_w9_c6 >= 0.6146
  lat_lin_w9_c7: x_w9_c7 + y_w9_c7 >= 0.0421
  lat_lin_w9_c8: x_w9_c8 + y_w9_c8 >= 0.1814
  lat_lin_w9_c9: x_w9_c9 + y_w9_c9 >= 0.1085
  lat_lin_w9_c10: x_w9_c10 + y_w9_c10 >= 0.5132
  lat_lin_w9_c11: x_w9_c11 + y_w9_c11 >= 0.5659
  lat_lin_w9_c12: x_w9_c12 + y_w9_c12 >= 0.3951
  lat_lin_w9_c13: x_w9_c13 + y_w9_c13 >= 0.5231
  lat_lin_w9_c14: x_w9_c14 + y_w9_c14 >= 0.3199
  lat_lin_w9_c15: x_w9_c15 + y_w9_c15 >= 0.8068
  lat_lin_w9_c16: x_w9_c16 + y_w9_c16 >= 0.0814
  lat_lin_w9_c17: x_w9_c17 + y_w9_c17 >= 0.1031
  lat_lin_w9_c18: x_w9_c18 + y_w9_c18 >= 0.1004
  lat_lin_w9_c19: x_w9_c19 + y_w9_c19 >= 0.1406
  lat_lin_w9_c20: x_w9_c20 + y_w9_c20 >= 0.4953
  lat_lin_w9_c21: x_w9_c21 + y_w9_c21 >= 0.6023
  lat_lin_w9_c22: x_w9_c22 + y_w9_c22 >= 0.0978
  lat_lin_w9_c23: x_w9_c23 + y_w9_c23 >= 0.4451
  lat_lin_w9_c24: x_w9_c24 + y_w9_c24 >= 0.4315
  demand_w9: x_w9_c0 + x_w9_c1 + x_w9_c2 + x_w9_c3 + x_w9_c4 + x_w9_c5 + x_w9_c6 + x_w9_c7 + x_w9_c8 + x_w9_c9 + x_w9_c10 + x_w9_c11 + x_w9_c12 + x_w9_c13 + x_w9_c14 + x_w9_c15 + x_w9_c16 + x_w9_c17 + x_w9_c18 + x_w9_c19 + x_w9_c20 + x_w9_c21 + x_w9_c22 + x_w9_c23 + x_w9_c24 = 10
  lat_lin_w10_c0: x_w10_c0 + y_w10_c0 >= 0.4307
  lat_lin_w10_c1: x_w10_c1 + y_w10_c1 >= 0.6141
  lat_lin_w10_c2: x_w10_c2 + y_w10_c2 >= 0.1221
  lat_lin_w10_c3: x_w10_c3 + y_w10_c3 >= 0.6977
  lat_lin_w10_c4: x_w10_c4 + y_w10_c4 >= 0.2194
  lat_lin_w10_c5: x_w10_c5 + y_w10_c5 >= 0.6050
  lat_lin_w10_c6: x_w10_c6 + y_w10_c6 >= 0.1543
  lat_lin_w10_c7: x_w10_c7 + y_w10_c7 >= 0.1017
  lat_lin_w10_c8: x_w10_c8 + y_w10_c8 >= 0.1420
  lat_lin_w10_c9: x_w10_c9 + y_w10_c9 >= 0.0392
  lat_lin_w10_c10: x_w10_c10 + y_w10_c10 >= 0.3498
  lat_lin_w10_c11: x_w10_c11 + y_w10_c11 >= 0.6184
  lat_lin_w10_c12: x_w10_c12 + y_w10_c12 >= 0.4903
  lat_lin_w10_c13: x_w10_c13 + y_w10_c13 >= 0.1949
  lat_lin_w10_c14: x_w10_c14 + y_w10_c14 >= 0.0371
  lat_lin_w10_c15: x_w10_c15 + y_w10_c15 >= 0.6064
  lat_lin_w10_c16: x_w10_c16 + y_w10_c16 >= 0.2320
  lat_lin_w10_c17: x_w10_c17 + y_w10_c17 >= 0.6106
  lat_lin_w10_c18: x_w10_c18 + y_w10_c18 >= 0.3948
  lat_lin_w10_c19: x_w10_c19 + y_w10_c19 >= 0.6450
  lat_lin_w10_c20: x_w10_c20 + y_w10_c20 >= 0.4539
  lat_lin_w10_c21: x_w10_c21 + y_w10_c21 >= 0.0070
  lat_lin_w10_c22: x_w10_c22 + y_w10_c22 >= 0.4023
  lat_lin_w10_c23: x_w10_c23 + y_w10_c23 >= 0.3174
  lat_lin_w10_c24: x_w10_c24 + y_w10_c24 >= 0.5139
  demand_w10: x_w10_c0 + x_w10_c1 + x_w10_c2 + x_w10_c3 + x_w10_c4 + x_w10_c5 + x_w10_c6 + x_w10_c7 + x_w10_c8 + x_w10_c9 + x_w10_c10 + x_w10_c11 + x_w10_c12 + x_w10_c13 + x_w10_c14 + x_w10_c15 + x_w10_c16 + x_w10_c17 + x_w10_c18 + x_w10_c19 + x_w10_c20 + x_w10_c21 + x_w10_c22 + x_w10_c23 + x_w10_c24 = 9
  lat_lin_w11_c0: x_w11_c0 + y_w11_c0 >= 0.1435
  lat_lin_w11_c1: x_w11_c1 + y_w11_c1 >= 0.2832
  lat_lin_w11_c2: x_w11_c2 + y_w11_c2 >= 0.3631
  lat_lin_w11_c3: x_w11_c3 + y_w11_c3 >= 0.3338
  lat_lin_w11_c4: x_w11_c4 + y_w11_c4 >= 0.2726
  lat_lin_w11_c5: x_w11_c5 + y_w11_c5 >= 0.1025
  lat_lin_w11_c6: x_w11_c6 + y_w11_c6 >= 0.1274
  lat_lin_w11_c7: x_w11_c7 + y_w11_c7 >= 0.3575
  lat_lin_w11_c8: x_w11_c8 + y_w11_c8 >= 0.2992
  lat_lin_w11_c9: x_w11_c9 + y_w11_c9 >= 0.1776
  lat_lin_w11_c10: x_w11_c10 + y_w11_c10 >= 0.3150
  lat_lin_w11_c11: x_w11_c11 + y_w11_c11 >= 0.2548
  lat_lin_w11_c12: x_w11_c12 + y_w11_c12 >= 0.1625
  lat_lin_w11_c13: x_w11_c13 + y_w11_c13 >= 0.0701
  lat_lin_w11_c14: x_w11_c14 + y_w11_c14 >= 0.2739
  lat_lin_w11_c15: x_w11_c15 + y_w11_c15 >= 0.1130
  lat_lin_w11_c16: x_w11_c16 + y_w11_c16 >= 0.2488
  lat_lin_w11_c17: x_w11_c17 + y_w11_c17 >= 0.3831
  lat_lin_w11_c18: x_w11_c18 + y_w11_c18 >= 0.2188
  lat_lin_w11_c19: x_w11_c19 + y_w11_c19 >= 0.3312
  lat_lin_w11_c20: x_w11_c20 + y_w11_c20 >= 0.0117
  lat_lin_w11_c21: x_w11_c21 + y_w11_c21 >= 0.3966
  lat_lin_w11_c22: x_w11_c22 + y_w11_c22 >= 0.2150
  lat_lin_w11_c23: x_w11_c23 + y_w11_c23 >= 0.2869
  lat_lin_w11_c24: x_w11_c24 + y_w11_c24 >= 0.2583
  demand_w11: x_w11_c0 + x_w11_c1 + x_w11_c2 + x_w11_c3 + x_w11_c4 + x_w11_c5 + x_w11_c6 + x_w11_c7 + x_w11_c8 + x_w11_c9 + x_w11_c10 + x_w11_c11 + x_w11_c12 + x_w11_c13 + x_w11_c14 + x_w11_c15 + x_w11_c16 + x_w11_c17 + x_w11_c18 + x_w11_c19 + x_w11_c20 + x_w11_c21 + x_w11_c22 + x_w11_c23 + x_w11_c24 = 6
  lat_lin_w12_c0: x_w12_c0 + y_w12_c0 >= 0.0924
  lat_lin_w12_c1: x_w12_c1 + y_w12_c1 >= 0.2863
  lat_lin_w12_c2: x_w12_c2 + y_w12_c2 >= 0.0327
  lat_lin_w12_c3: x_w12_c3 + y_w12_c3 >= 0.0521
  lat_lin_w12_c4: x_w12_c4 + y_w12_c4 >= 0.2684
  lat_lin_w12_c5: x_w12_c5 + y_w12_c5 >= 0.1592
  lat_lin_w12_c6: x_w12_c6 + y_w12_c6 >= 0.1733
  lat_lin_w12_c7: x_w12_c7 + y_w12_c7 >= 0.3407
  lat_lin_w12_c8: x_w12_c8 + y_w12_c8 >= 0.0485
  lat_lin_w12_c9: x_w12_c9 + y_w12_c9 >= 0.2620
  lat_lin_w12_c10: x_w12_c10 + y_w12_c10 >= 0.0148
  lat_lin_w12_c11: x_w12_c11 + y_w12_c11 >= 0.2371
  lat_lin_w12_c12: x_w12_c12 + y_w12_c12 >= 0.2626
  lat_lin_w12_c13: x_w12_c13 + y_w12_c13 >= 0.1006
  lat_lin_w12_c14: x_w12_c14 + y_w12_c14 >= 0.0103
  lat_lin_w12_c15: x_w12_c15 + y_w12_c15 >= 0.3047
  lat_lin_w12_c16: x_w12_c16 + y_w12_c16 >= 0.0521
  lat_lin_w12_c17: x_w12_c17 + y_w12_c17 >= 0.0245
  lat_lin_w12_c18: x_w12_c18 + y_w12_c18 >= 0.2766
  lat_lin_w12_c19: x_w12_c19 + y_w12_c19 >= 0.0175
  lat_lin_w12_c20: x_w12_c20 + y_w12_c20 >= 0.3577
  lat_lin_w12_c21: x_w12_c21 + y_w12_c21 >= 0.0092
  lat_lin_w12_c22: x_w12_c22 + y_w12_c22 >= 0.2235
  lat_lin_w12_c23: x_w12_c23 + y_w12_c23 >= 0.0330
  lat_lin_w12_c24: x_w12_c24 + y_w12_c24 >= 0.3600
  demand_w12: x_w12_c0 + x_w12_c1 + x_w12_c2 + x_w12_c3 + x_w12_c4 + x_w12_c5 + x_w12_c6 + x_w12_c7 + x_w12_c8 + x_w12_c9 + x_w12_c10 + x_w12_c11 + x_w12_c12 + x_w12_c13 + x_w12_c14 + x_w12_c15 + x_w12_c16 + x_w12_c17 + x_w12_c18 + x_w12_c19 + x_w12_c20 + x_w12_c21 + x_w12_c22 + x_w12_c23 + x_w12_c24 = 4
  lat_lin_w13_c0: x_w13_c0 + y_w13_c0 >= 0.0417
  lat_lin_w13_c1: x_w13_c1 + y_w13_c1 >= 0.5090
  lat_lin_w13_c2: x_w13_c2 + y_w13_c2 >= 0.2850
  lat_lin_w13_c3: x_w13_c3 + y_w13_c3 >= 0.5561
  lat_lin_w13_c4: x_w13_c4 + y_w13_c4 >= 0.1398
  lat_lin_w13_c5: x_w13_c5 + y_w13_c5 >= 0.6431
  lat_lin_w13_c6: x_w13_c6 + y_w13_c6 >= 0.5585
  lat_lin_w13_c7: x_w13_c7 + y_w13_c7 >= 0.2723
  lat_lin_w13_c8: x_w13_c8 + y_w13_c8 >= 0.1287
  lat_lin_w13_c9: x_w13_c9 + y_w13_c9 >= 0.0278
  lat_lin_w13_c10: x_w13_c10 + y_w13_c10 >= 0.0993
  lat_lin_w13_c11: x_w13_c11 + y_w13_c11 >= 0.3273
  lat_lin_w13_c12: x_w13_c12 + y_w13_c12 >= 0.3859
  lat_lin_w13_c13: x_w13_c13 + y_w13_c13 >= 0.3292
  lat_lin_w13_c14: x_w13_c14 + y_w13_c14 >= 0.7229
  lat_lin_w13_c15: x_w13_c15 + y_w13_c15 >= 0.5286
  lat_lin_w13_c16: x_w13_c16 + y_w13_c16 >= 0.3953
  lat_lin_w13_c17: x_w13_c17 + y_w13_c17 >= 0.2076
  lat_lin_w13_c18: x_w13_c18 + y_w13_c18 >= 0.4681
  lat_lin_w13_c19: x_w13_c19 + y_w13_c19 >= 0.7087
  lat_lin_w13_c20: x_w13_c20 + y_w13_c20 >= 0.6898
  lat_lin_w13_c21: x_w13_c21 + y_w13_c21 >= 0.7188
  lat_lin_w13_c22: x_w13_c22 + y_w13_c22 >= 0.7332
  lat_lin_w13_c23: x_w13_c23 + y_w13_c23 >= 0.3808
  lat_lin_w13_c24: x_w13_c24 + y_w13_c24 >= 0.1424
  demand_w13: x_w13_c0 + x_w13_c1 + x_w13_c2 + x_w13_c3 + x_w13_c4 + x_w13_c5 + x_w13_c6 + x_w13_c7 + x_w13_c8 + x_w13_c9 + x_w13_c10 + x_w13_c11 + x_w13_c12 + x_w13_c13 + x_w13_c14 + x_w13_c15 + x_w13_c16 + x_w13_c17 + x_w13_c18 + x_w13_c19 + x_w13_c20 + x_w13_c21 + x_w13_c22 + x_w13_c23 + x_w13_c24 = 10
  lat_lin_w14_c0: x_w14_c0 + y_w14_c0 >= 0.1472
  lat_lin_w14_c1: x_w14_c1 + y_w14_c1 >= 0.1587
  lat_lin_w14_c2: x_w14_c2 + y_w14_c2 >= 0.1191
  lat_lin_w14_c3: x_w14_c3 + y_w14_c3 >= 0.2101
  lat_lin_w14_c4: x_w14_c4 + y_w14_c4 >= 0.0702
  lat_lin_w14_c5: x_w14_c5 + y_w14_c5 >= 0.0697
  lat_lin_w14_c6: x_w14_c6 + y_w14_c6 >= 0.0639
  lat_lin_w14_c7: x_w14_c7 + y_w14_c7 >= 0.1517
  lat_lin_w14_c8: x_w14_c8 + y_w14_c8 >= 0.0032
  lat_lin_w14_c9: x_w14_c9 + y_w14_c9 >= 0.1004
  lat_lin_w14_c10: x_w14_c10 + y_w14_c10 >= 0.1630
  lat_lin_w14_c11: x_w14_c11 + y_w14_c11 >= 0.0815
  lat_lin_w14_c12: x_w14_c12 + y_w14_c12 >= 0.1326
  lat_lin_w14_c13: x_w14_c13 + y_w14_c13 >= 0.1446
  lat_lin_w14_c14: x_w14_c14 + y_w14_c14 >= 0.2011
  lat_lin_w14_c15: x_w14_c15 + y_w14_c15 >= 0.0546
  lat_lin_w14_c16: x_w14_c16 + y_w14_c16 >= 0.0673
  lat_lin_w14_c17: x_w14_c17 + y_w14_c17 >= 0.2134
  lat_lin_w14_c18: x_w14_c18 + y_w14_c18 >= 0.1491
  lat_lin_w14_c19: x_w14_c19 + y_w14_c19 >= 0.0154
  lat_lin_w14_c20: x_w14_c20 + y_w14_c20 >= 0.2133
  lat_lin_w14_c21: x_w14_c21 + y_w14_c21 >= 0.1259
  lat_lin_w14_c22: x_w14_c22 + y_w14_c22 >= 0.0277
  lat_lin_w14_c23: x_w14_c23 + y_w14_c23 >= 0.2053
  lat_lin_w14_c24: x_w14_c24 + y_w14_c24 >= 0.1110
  demand_w14: x_w14_c0 + x_w14_c1 + x_w14_c2 + x_w14_c3 + x_w14_c4 + x_w14_c5 + x_w14_c6 + x_w14_c7 + x_w14_c8 + x_w14_c9 + x_w14_c10 + x_w14_c11 + x_w14_c12 + x_w14_c13 + x_w14_c14 + x_w14_c15 + x_w14_c16 + x_w14_c17 + x_w14_c18 + x_w14_c19 + x_w14_c20 + x_w14_c21 + x_w14_c22 + x_w14_c23 + x_w14_c24 = 3
  lat_lin_w15_c0: x_w15_c0 + y_w15_c0 >= 0.5789
  lat_lin_w15_c1: x_w15_c1 + y_w15_c1 >= 0.3452
  lat_lin_w15_c2: x_w15_c2 + y_w15_c2 >= 0.7195
  lat_lin_w15_c3: x_w15_c3 + y_w15_c3 >= 0.2631
  lat_lin_w15_c4: x_w15_c4 + y_w15_c4 >= 0.8618
  lat_lin_w15_c5: x_w15_c5 + y_w15_c5 >= 0.7509
  lat_lin_w15_c6: x_w15_c6 + y_w15_c6 >= 0.6548
  lat_lin_w15_c7: x_w15_c7 + y_w15_c7 >= 0.4264
  lat_lin_w15_c8: x_w15_c8 + y_w15_c8 >= 0.3578
  lat_lin_w15_c9: x_w15_c9 + y_w15_c9 >= 0.1402
  lat_lin_w15_c10: x_w15_c10 + y_w15_c10 >= 0.2826
  lat_lin_w15_c11: x_w15_c11 + y_w15_c11 >= 0.8516
  lat_lin_w15_c12: x_w15_c12 + y_w15_c12 >= 0.8157
  lat_lin_w15_c13: x_w15_c13 + y_w15_c13 >= 0.0585
  lat_lin_w15_c14: x_w15_c14 + y_w15_c14 >= 0.4330
  lat_lin_w15_c15: x_w15_c15 + y_w15_c15 >= 0.5887
  lat_lin_w15_c16: x_w15_c16 + y_w15_c16 >= 0.4574
  lat_lin_w15_c17: x_w15_c17 + y_w15_c17 >= 0.4087
  lat_lin_w15_c18: x_w15_c18 + y_w15_c18 >= 0.6645
  lat_lin_w15_c19: x_w15_c19 + y_w15_c19 >= 0.6454
  lat_lin_w15_c20: x_w15_c20 + y_w15_c20 >= 0.4671
  lat_lin_w15_c21: x_w15_c21 + y_w15_c21 >= 0.4132
  lat_lin_w15_c22: x_w15_c22 + y_w15_c22 >= 0.7741
  lat_lin_w15_c23: x_w15_c23 + y_w15_c23 >= 0.2579
  lat_lin_w15_c24: x_w15_c24 + y_w15_c24 >= 0.7830
  demand_w15: x_w15_c0 + x_w15_c1 + x_w15_c2 + x_w15_c3 + x_w15_c4 + x_w15_c5 + x_w15_c6 + x_w15_c7 + x_w15_c8 + x_w15_c9 + x_w15_c10 + x_w15_c11 + x_w15_c12 + x_w15_c13 + x_w15_c14 + x_w15_c15 + x_w15_c16 + x_w15_c17 + x_w15_c18 + x_w15_c19 + x_w15_c20 + x_w15_c21 + x_w15_c22 + x_w15_c23 + x_w15_c24 = 13
  lat_lin_w16_c0: x_w16_c0 + y_w16_c0 >= 0.4105
  lat_lin_w16_c1: x_w16_c1 + y_w16_c1 >= 0.7338
  lat_lin_w16_c2: x_w16_c2 + y_w16_c2 >= 0.8418
  lat_lin_w16_c3: x_w16_c3 + y_w16_c3 >= 0.1536
  lat_lin_w16_c4: x_w16_c4 + y_w16_c4 >= 0.7671
  lat_lin_w16_c5: x_w16_c5 + y_w16_c5 >= 0.8280
  lat_lin_w16_c6: x_w16_c6 + y_w16_c6 >= 0.5094
  lat_lin_w16_c7: x_w16_c7 + y_w16_c7 >= 0.4259
  lat_lin_w16_c8: x_w16_c8 + y_w16_c8 >= 0.7220
  lat_lin_w16_c9: x_w16_c9 + y_w16_c9 >= 0.8305
  lat_lin_w16_c10: x_w16_c10 + y_w16_c10 >= 0.3502
  lat_lin_w16_c11: x_w16_c11 + y_w16_c11 >= 0.6314
  lat_lin_w16_c12: x_w16_c12 + y_w16_c12 >= 0.2255
  lat_lin_w16_c13: x_w16_c13 + y_w16_c13 >= 0.1265
  lat_lin_w16_c14: x_w16_c14 + y_w16_c14 >= 0.5486
  lat_lin_w16_c15: x_w16_c15 + y_w16_c15 >= 0.0264
  lat_lin_w16_c16: x_w16_c16 + y_w16_c16 >= 0.3411
  lat_lin_w16_c17: x_w16_c17 + y_w16_c17 >= 0.1270
  lat_lin_w16_c18: x_w16_c18 + y_w16_c18 >= 0.2739
  lat_lin_w16_c19: x_w16_c19 + y_w16_c19 >= 0.0784
  lat_lin_w16_c20: x_w16_c20 + y_w16_c20 >= 0.3318
  lat_lin_w16_c21: x_w16_c21 + y_w16_c21 >= 0.7661
  lat_lin_w16_c22: x_w16_c22 + y_w16_c22 >= 0.2213
  lat_lin_w16_c23: x_w16_c23 + y_w16_c23 >= 0.5819
  lat_lin_w16_c24: x_w16_c24 + y_w16_c24 >= 0.1473
  demand_w16: x_w16_c0 + x_w16_c1 + x_w16_c2 + x_w16_c3 + x_w16_c4 + x_w16_c5 + x_w16_c6 + x_w16_c7 + x_w16_c8 + x_w16_c9 + x_w16_c10 + x_w16_c11 + x_w16_c12 + x_w16_c13 + x_w16_c14 + x_w16_c15 + x_w16_c16 + x_w16_c17 + x_w16_c18 + x_w16_c19 + x_w16_c20 + x_w16_c21 + x_w16_c22 + x_w16_c23 + x_w16_c24 = 11
  lat_lin_w17_c0: x_w17_c0 + y_w17_c0 >= 0.2977
  lat_lin_w17_c1: x_w17_c1 + y_w17_c1 >= 0.3375
  lat_lin_w17_c2: x_w17_c2 + y_w17_c2 >= 0.2304
  lat_lin_w17_c3: x_w17_c3 + y_w17_c3 >= 0.0409
  lat_lin_w17_c4: x_w17_c4 + y_w17_c4 >= 0.3591
  lat_lin_w17_c5: x_w17_c5 + y_w17_c5 >= 0.2843
  lat_lin_w17_c6: x_w17_c6 + y_w17_c6 >= 0.1998
  lat_lin_w17_c7: x_w17_c7 + y_w17_c7 >= 0.1000
  lat_lin_w17_c8: x_w17_c8 + y_w17_c8 >= 0.2380
  lat_lin_w17_c9: x_w17_c9 + y_w17_c9 >= 0.2167
  lat_lin_w17_c10: x_w17_c10 + y_w17_c10 >= 0.1355
  lat_lin_w17_c11: x_w17_c11 + y_w17_c11 >= 0.2151
  lat_lin_w17_c12: x_w17_c12 + y_w17_c12 >= 0.2041
  lat_lin_w17_c13: x_w17_c13 + y_w17_c13 >= 0.0794
  lat_lin_w17_c14: x_w17_c14 + y_w17_c14 >= 0.1181
  lat_lin_w17_c15: x_w17_c15 + y_w17_c15 >= 0.2268
  lat_lin_w17_c16: x_w17_c16 + y_w17_c16 >= 0.0783
  lat_lin_w17_c17: x_w17_c17 + y_w17_c17 >= 0.2673
  lat_lin_w17_c18: x_w17_c18 + y_w17_c18 >= 0.1397
  lat_lin_w17_c19: x_w17_c19 + y_w17_c19 >= 0.1067
  lat_lin_w17_c20: x_w17_c20 + y_w17_c20 >= 0.1123
  lat_lin_w17_c21: x_w17_c21 + y_w17_c21 >= 0.3188
  lat_lin_w17_c22: x_w17_c22 + y_w17_c22 >= 0.2123
  lat_lin_w17_c23: x_w17_c23 + y_w17_c23 >= 0.1367
  lat_lin_w17_c24: x_w17_c24 + y_w17_c24 >= 0.3446
  demand_w17: x_w17_c0 + x_w17_c1 + x_w17_c2 + x_w17_c3 + x_w17_c4 + x_w17_c5 + x_w17_c6 + x_w17_c7 + x_w17_c8 + x_w17_c9 + x_w17_c10 + x_w17_c11 + x_w17_c12 + x_w17_c13 + x_w17_c14 + x_w17_c15 + x_w17_c16 + x_w17_c17 + x_w17_c18 + x_w17_c19 + x_w17_c20 + x_w17_c21 + x_w17_c22 + x_w17_c23 + x_w17_c24 = 5
  lat_lin_w18_c0: x_w18_c0 + y_w18_c0 >= 0.7057
  lat_lin_w18_c1: x_w18_c1 + y_w18_c1 >= 0.1656
  lat_lin_w18_c2: x_w18_c2 + y_w18_c2 >= 0.2889
  lat_lin_w18_c3: x_w18_c3 + y_w18_c3 >= 0.9907
  lat_lin_w18_c4: x_w18_c4 + y_w18_c4 >= 1.1857
  lat_lin_w18_c5: x_w18_c5 + y_w18_c5 >= 0.4039
  lat_lin_w18_c6: x_w18_c6 + y_w18_c6 >= 1.1947
  lat_lin_w18_c7: x_w18_c7 + y_w18_c7 >= 0.3253
  lat_lin_w18_c8: x_w18_c8 + y_w18_c8 >= 0.1651
  lat_lin_w18_c9: x_w18_c9 + y_w18_c9 >= 0.1263
  lat_lin_w18_c10: x_w18_c10 + y_w18_c10 >= 0.0602
  lat_lin_w18_c11: x_w18_c11 + y_w18_c11 >= 1.1266
  lat_lin_w18_c12: x_w18_c12 + y_w18_c12 >= 0.6266
  lat_lin_w18_c13: x_w18_c13 + y_w18_c13 >= 1.0927
  lat_lin_w18_c14: x_w18_c14 + y_w18_c14 >= 0.3117
  lat_lin_w18_c15: x_w18_c15 + y_w18_c15 >= 0.3014
  lat_lin_w18_c16: x_w18_c16 + y_w18_c16 >= 0.6164
  lat_lin_w18_c17: x_w18_c17 + y_w18_c17 >= 0.1366
  lat_lin_w18_c18: x_w18_c18 + y_w18_c18 >= 0.1944
  lat_lin_w18_c19: x_w18_c19 + y_w18_c19 >= 0.9265
  lat_lin_w18_c20: x_w18_c20 + y_w18_c20 >= 1.0057
  lat_lin_w18_c21: x_w18_c21 + y_w18_c21 >= 0.5377
  lat_lin_w18_c22: x_w18_c22 + y_w18_c22 >= 0.4193
  lat_lin_w18_c23: x_w18_c23 + y_w18_c23 >= 0.9572
  lat_lin_w18_c24: x_w18_c24 + y_w18_c24 >= 1.1352
  demand_w18: x_w18_c0 + x_w18_c1 + x_w18_c2 + x_w18_c3 + x_w18_c4 + x_w18_c5 + x_w18_c6 + x_w18_c7 + x_w18_c8 + x_w18_c9 + x_w18_c10 + x_w18_c11 + x_w18_c12 + x_w18_c13 + x_w18_c14 + x_w18_c15 + x_w18_c16 + x_w18_c17 + x_w18_c18 + x_w18_c19 + x_w18_c20 + x_w18_c21 + x_w18_c22 + x_w18_c23 + x_w18_c24 = 15
  lat_lin_w19_c0: x_w19_c0 + y_w19_c0 >= 0.1582
  lat_lin_w19_c1: x_w19_c1 + y_w19_c1 >= 0.2550
  lat_lin_w19_c2: x_w19_c2 + y_w19_c2 >= 0.0095
  lat_lin_w19_c3: x_w19_c3 + y_w19_c3 >= 0.1650
  lat_lin_w19_c4: x_w19_c4 + y_w19_c4 >= 0.2791
  lat_lin_w19_c5: x_w19_c5 + y_w19_c5 >= 0.0568
  lat_lin_w19_c6: x_w19_c6 + y_w19_c6 >= 0.1865
  lat_lin_w19_c7: x_w19_c7 + y_w19_c7 >= 0.0921
  lat_lin_w19_c8: x_w19_c8 + y_w19_c8 >= 0.0342
  lat_lin_w19_c9: x_w19_c9 + y_w19_c9 >= 0.0612
  lat_lin_w19_c10: x_w19_c10 + y_w19_c10 >= 0.0625
  lat_lin_w19_c11: x_w19_c11 + y_w19_c11 >= 0.0376
  lat_lin_w19_c12: x_w19_c12 + y_w19_c12 >= 0.1121
  lat_lin_w19_c13: x_w19_c13 + y_w19_c13 >= 0.0479
  lat_lin_w19_c14: x_w19_c14 + y_w19_c14 >= 0.2008
  lat_lin_w19_c15: x_w19_c15 + y_w19_c15 >= 0.1906
  lat_lin_w19_c16: x_w19_c16 + y_w19_c16 >= 0.2677
  lat_lin_w19_c17: x_w19_c17 + y_w19_c17 >= 0.2277
  lat_lin_w19_c18: x_w19_c18 + y_w19_c18 >= 0.2463
  lat_lin_w19_c19: x_w19_c19 + y_w19_c19 >= 0.1036
  lat_lin_w19_c20: x_w19_c20 + y_w19_c20 >= 0.1441
  lat_lin_w19_c21: x_w19_c21 + y_w19_c21 >= 0.3031
  lat_lin_w19_c22: x_w19_c22 + y_w19_c22 >= 0.2614
  lat_lin_w19_c23: x_w19_c23 + y_w19_c23 >= 0.2989
  lat_lin_w19_c24: x_w19_c24 + y_w19_c24 >= 0.1981
  demand_w19: x_w19_c0 + x_w19_c1 + x_w19_c2 + x_w19_c3 + x_w19_c4 + x_w19_c5 + x_w19_c6 + x_w19_c7 + x_w19_c8 + x_w19_c9 + x_w19_c10 + x_w19_c11 + x_w19_c12 + x_w19_c13 + x_w19_c14 + x_w19_c15 + x_w19_c16 + x_w19_c17 + x_w19_c18 + x_w19_c19 + x_w19_c20 + x_w19_c21 + x_w19_c22 + x_w19_c23 + x_w19_c24 = 4
  lat_lin_w20_c0: x_w20_c0 + y_w20_c0 >= 0.8521
  lat_lin_w20_c1: x_w20_c1 + y_w20_c1 >= 0.3035
  lat_lin_w20_c2: x_w20_c2 + y_w20_c2 >= 1.0587
  lat_lin_w20_c3: x_w20_c3 + y_w20_c3 >= 0.8979
  lat_lin_w20_c4: x_w20_c4 + y_w20_c4 >= 1.1385
  lat_lin_w20_c5: x_w20_c5 + y_w20_c5 >= 0.1859
  lat_lin_w20_c6: x_w20_c6 + y_w20_c6 >= 0.1615
  lat_lin_w20_c7: x_w20_c7 + y_w20_c7 >= 0.2151
  lat_lin_w20_c8: x_w20_c8 + y_w20_c8 >= 0.9152
  lat_lin_w20_c9: x_w20_c9 + y_w20_c9 >= 0.6563
  lat_lin_w20_c10: x_w20_c10 + y_w20_c10 >= 0.4429
  lat_lin_w20_c11: x_w20_c11 + y_w20_c11 >= 0.0552
  lat_lin_w20_c12: x_w20_c12 + y_w20_c12 >= 0.9170
  lat_lin_w20_c13: x_w20_c13 + y_w20_c13 >= 0.9764
  lat_lin_w20_c14: x_w20_c14 + y_w20_c14 >= 0.1616
  lat_lin_w20_c15: x_w20_c15 + y_w20_c15 >= 0.9612
  lat_lin_w20_c16: x_w20_c16 + y_w20_c16 >= 0.4716
  lat_lin_w20_c17: x_w20_c17 + y_w20_c17 >= 0.1797
  lat_lin_w20_c18: x_w20_c18 + y_w20_c18 >= 0.4858
  lat_lin_w20_c19: x_w20_c19 + y_w20_c19 >= 0.9260
  lat_lin_w20_c20: x_w20_c20 + y_w20_c20 >= 0.1358
  lat_lin_w20_c21: x_w20_c21 + y_w20_c21 >= 0.2689
  lat_lin_w20_c22: x_w20_c22 + y_w20_c22 >= 0.4881
  lat_lin_w20_c23: x_w20_c23 + y_w20_c23 >= 0.3364
  lat_lin_w20_c24: x_w20_c24 + y_w20_c24 >= 0.8084
  demand_w20: x_w20_c0 + x_w20_c1 + x_w20_c2 + x_w20_c3 + x_w20_c4 + x_w20_c5 + x_w20_c6 + x_w20_c7 + x_w20_c8 + x_w20_c9 + x_w20_c10 + x_w20_c11 + x_w20_c12 + x_w20_c13 + x_w20_c14 + x_w20_c15 + x_w20_c16 + x_w20_c17 + x_w20_c18 + x_w20_c19 + x_w20_c20 + x_w20_c21 + x_w20_c22 + x_w20_c23 + x_w20_c24 = 14
  lat_lin_w21_c0: x_w21_c0 + y_w21_c0 >= 0.6877
  lat_lin_w21_c1: x_w21_c1 + y_w21_c1 >= 0.1223
  lat_lin_w21_c2: x_w21_c2 + y_w21_c2 >= 0.1850
  lat_lin_w21_c3: x_w21_c3 + y_w21_c3 >= 0.5770
  lat_lin_w21_c4: x_w21_c4 + y_w21_c4 >= 0.5970
  lat_lin_w21_c5: x_w21_c5 + y_w21_c5 >= 0.5733
  lat_lin_w21_c6: x_w21_c6 + y_w21_c6 >= 0.3490
  lat_lin_w21_c7: x_w21_c7 + y_w21_c7 >= 0.6337
  lat_lin_w21_c8: x_w21_c8 + y_w21_c8 >= 0.2526
  lat_lin_w21_c9: x_w21_c9 + y_w21_c9 >= 0.2185
  lat_lin_w21_c10: x_w21_c10 + y_w21_c10 >= 0.1659
  lat_lin_w21_c11: x_w21_c11 + y_w21_c11 >= 0.6452
  lat_lin_w21_c12: x_w21_c12 + y_w21_c12 >= 0.1172
  lat_lin_w21_c13: x_w21_c13 + y_w21_c13 >= 0.2386
  lat_lin_w21_c14: x_w21_c14 + y_w21_c14 >= 0.3522
  lat_lin_w21_c15: x_w21_c15 + y_w21_c15 >= 0.5632
  lat_lin_w21_c16: x_w21_c16 + y_w21_c16 >= 0.1422
  lat_lin_w21_c17: x_w21_c17 + y_w21_c17 >= 0.6343
  lat_lin_w21_c18: x_w21_c18 + y_w21_c18 >= 0.6163
  lat_lin_w21_c19: x_w21_c19 + y_w21_c19 >= 0.4577
  lat_lin_w21_c20: x_w21_c20 + y_w21_c20 >= 0.6657
  lat_lin_w21_c21: x_w21_c21 + y_w21_c21 >= 0.5600
  lat_lin_w21_c22: x_w21_c22 + y_w21_c22 >= 0.5726
  lat_lin_w21_c23: x_w21_c23 + y_w21_c23 >= 0.0398
  lat_lin_w21_c24: x_w21_c24 + y_w21_c24 >= 0.0329
  demand_w21: x_w21_c0 + x_w21_c1 + x_w21_c2 + x_w21_c3 + x_w21_c4 + x_w21_c5 + x_w21_c6 + x_w21_c7 + x_w21_c8 + x_w21_c9 + x_w21_c10 + x_w21_c11 + x_w21_c12 + x_w21_c13 + x_w21_c14 + x_w21_c15 + x_w21_c16 + x_w21_c17 + x_w21_c18 + x_w21_c19 + x_w21_c20 + x_w21_c21 + x_w21_c22 + x_w21_c23 + x_w21_c24 = 10
  lat_lin_w22_c0: x_w22_c0 + y_w22_c0 >= 0.0674
  lat_lin_w22_c1: x_w22_c1 + y_w22_c1 >= 0.2099
  lat_lin_w22_c2: x_w22_c2 + y_w22_c2 >= 0.2541
  lat_lin_w22_c3: x_w22_c3 + y_w22_c3 >= 0.4328
  lat_lin_w22_c4: x_w22_c4 + y_w22_c4 >= 0.2499
  lat_lin_w22_c5: x_w22_c5 + y_w22_c5 >= 0.4231
  lat_lin_w22_c6: x_w22_c6 + y_w22_c6 >= 0.3669
  lat_lin_w22_c7: x_w22_c7 + y_w22_c7 >= 0.0676
  lat_lin_w22_c8: x_w22_c8 + y_w22_c8 >= 0.4196
  lat_lin_w22_c9: x_w22_c9 + y_w22_c9 >= 0.2770
  lat_lin_w22_c10: x_w22_c10 + y_w22_c10 >= 0.0729
  lat_lin_w22_c11: x_w22_c11 + y_w22_c11 >= 0.2729
  lat_lin_w22_c12: x_w22_c12 + y_w22_c12 >= 0.1591
  lat_lin_w22_c13: x_w22_c13 + y_w22_c13 >= 0.1648
  lat_lin_w22_c14: x_w22_c14 + y_w22_c14 >= 0.1434
  lat_lin_w22_c15: x_w22_c15 + y_w22_c15 >= 0.3529
  lat_lin_w22_c16: x_w22_c16 + y_w22_c16 >= 0.0630
  lat_lin_w22_c17: x_w22_c17 + y_w22_c17 >= 0.2839
  lat_lin_w22_c18: x_w22_c18 + y_w22_c18 >= 0.4045
  lat_lin_w22_c19: x_w22_c19 + y_w22_c19 >= 0.1908
  lat_lin_w22_c20: x_w22_c20 + y_w22_c20 >= 0.2799
  lat_lin_w22_c21: x_w22_c21 + y_w22_c21 >= 0.3937
  lat_lin_w22_c22: x_w22_c22 + y_w22_c22 >= 0.2954
  lat_lin_w22_c23: x_w22_c23 + y_w22_c23 >= 0.0925
  lat_lin_w22_c24: x_w22_c24 + y_w22_c24 >= 0.0619
  demand_w22: x_w22_c0 + x_w22_c1 + x_w22_c2 + x_w22_c3 + x_w22_c4 + x_w22_c5 + x_w22_c6 + x_w22_c7 + x_w22_c8 + x_w22_c9 + x_w22_c10 + x_w22_c11 + x_w22_c12 + x_w22_c13 + x_w22_c14 + x_w22_c15 + x_w22_c16 + x_w22_c17 + x_w22_c18 + x_w22_c19 + x_w22_c20 + x_w22_c21 + x_w22_c22 + x_w22_c23 + x_w22_c24 = 6
  lat_lin_w23_c0: x_w23_c0 + y_w23_c0 >= 0.2832
  lat_lin_w23_c1: x_w23_c1 + y_w23_c1 >= 0.0703
  lat_lin_w23_c2: x_w23_c2 + y_w23_c2 >= 0.0495
  lat_lin_w23_c3: x_w23_c3 + y_w23_c3 >= 0.2612
  lat_lin_w23_c4: x_w23_c4 + y_w23_c4 >= 0.0553
  lat_lin_w23_c5: x_w23_c5 + y_w23_c5 >= 0.2425
  lat_lin_w23_c6: x_w23_c6 + y_w23_c6 >= 0.2507
  lat_lin_w23_c7: x_w23_c7 + y_w23_c7 >= 0.0526
  lat_lin_w23_c8: x_w23_c8 + y_w23_c8 >= 0.4224
  lat_lin_w23_c9: x_w23_c9 + y_w23_c9 >= 0.2590
  lat_lin_w23_c10: x_w23_c10 + y_w23_c10 >= 0.2537
  lat_lin_w23_c11: x_w23_c11 + y_w23_c11 >= 0.2035
  lat_lin_w23_c12: x_w23_c12 + y_w23_c12 >= 0.3691
  lat_lin_w23_c13: x_w23_c13 + y_w23_c13 >= 0.1357
  lat_lin_w23_c14: x_w23_c14 + y_w23_c14 >= 0.0877
  lat_lin_w23_c15: x_w23_c15 + y_w23_c15 >= 0.2385
  lat_lin_w23_c16: x_w23_c16 + y_w23_c16 >= 0.4223
  lat_lin_w23_c17: x_w23_c17 + y_w23_c17 >= 0.3186
  lat_lin_w23_c18: x_w23_c18 + y_w23_c18 >= 0.0600
  lat_lin_w23_c19: x_w23_c19 + y_w23_c19 >= 0.0716
  lat_lin_w23_c20: x_w23_c20 + y_w23_c20 >= 0.0178
  lat_lin_w23_c21: x_w23_c21 + y_w23_c21 >= 0.0477
  lat_lin_w23_c22: x_w23_c22 + y_w23_c22 >= 0.3833
  lat_lin_w23_c23: x_w23_c23 + y_w23_c23 >= 0.4175
  lat_lin_w23_c24: x_w23_c24 + y_w23_c24 >= 0.0261
  demand_w23: x_w23_c0 + x_w23_c1 + x_w23_c2 + x_w23_c3 + x_w23_c4 + x_w23_c5 + x_w23_c6 + x_w23_c7 + x_w23_c8 + x_w23_c9 + x_w23_c10 + x_w23_c11 + x_w23_c12 + x_w23_c13 + x_w23_c14 + x_w23_c15 + x_w23_c16 + x_w23_c17 + x_w23_c18 + x_w23_c19 + x_w23_c20 + x_w23_c21 + x_w23_c22 + x_w23_c23 + x_w23_c24 = 5
  lat_lin_w24_c0: x_w24_c0 + y_w24_c0 >= 0.6511
  lat_lin_w24_c1: x_w24_c1 + y_w24_c1 >= 0.9130
  lat_lin_w24_c2: x_w24_c2 + y_w24_c2 >= 0.8701
  lat_lin_w24_c3: x_w24_c3 + y_w24_c3 >= 0.4554
  lat_lin_w24_c4: x_w24_c4 + y_w24_c4 >= 0.8462
  lat_lin_w24_c5: x_w24_c5 + y_w24_c5 >= 0.6442
  lat_lin_w24_c6: x_w24_c6 + y_w24_c6 >= 0.7415
  lat_lin_w24_c7: x_w24_c7 + y_w24_c7 >= 0.7802
  lat_lin_w24_c8: x_w24_c8 + y_w24_c8 >= 0.7172
  lat_lin_w24_c9: x_w24_c9 + y_w24_c9 >= 0.4999
  lat_lin_w24_c10: x_w24_c10 + y_w24_c10 >= 0.8998
  lat_lin_w24_c11: x_w24_c11 + y_w24_c11 >= 0.3998
  lat_lin_w24_c12: x_w24_c12 + y_w24_c12 >= 0.9057
  lat_lin_w24_c13: x_w24_c13 + y_w24_c13 >= 0.5132
  lat_lin_w24_c14: x_w24_c14 + y_w24_c14 >= 0.0908
  lat_lin_w24_c15: x_w24_c15 + y_w24_c15 >= 0.8432
  lat_lin_w24_c16: x_w24_c16 + y_w24_c16 >= 0.8289
  lat_lin_w24_c17: x_w24_c17 + y_w24_c17 >= 0.5987
  lat_lin_w24_c18: x_w24_c18 + y_w24_c18 >= 0.6836
  lat_lin_w24_c19: x_w24_c19 + y_w24_c19 >= 0.1373
  lat_lin_w24_c20: x_w24_c20 + y_w24_c20 >= 0.1502
  lat_lin_w24_c21: x_w24_c21 + y_w24_c21 >= 0.5530
  lat_lin_w24_c22: x_w24_c22 + y_w24_c22 >= 0.0142
  lat_lin_w24_c23: x_w24_c23 + y_w24_c23 >= 0.4996
  lat_lin_w24_c24: x_w24_c24 + y_w24_c24 >= 0.7634
  demand_w24: x_w24_c0 + x_w24_c1 + x_w24_c2 + x_w24_c3 + x_w24_c4 + x_w24_c5 + x_w24_c6 + x_w24_c7 + x_w24_c8 + x_w24_c9 + x_w24_c10 + x_w24_c11 + x_w24_c12 + x_w24_c13 + x_w24_c14 + x_w24_c15 + x_w24_c16 + x_w24_c17 + x_w24_c18 + x_w24_c19 + x_w24_c20 + x_w24_c21 + x_w24_c22 + x_w24_c23 + x_w24_c24 = 15
  lat_lin_w25_c0: x_w25_c0 + y_w25_c0 >= 0.3024
  lat_lin_w25_c1: x_w25_c1 + y_w25_c1 >= 0.4183
  lat_lin_w25_c2: x_w25_c2 + y_w25_c2 >= 0.1949
  lat_lin_w25_c3: x_w25_c3 + y_w25_c3 >= 0.3442
  lat_lin_w25_c4: x_w25_c4 + y_w25_c4 >= 0.5634
  lat_lin_w25_c5: x_w25_c5 + y_w25_c5 >= 0.5051
  lat_lin_w25_c6: x_w25_c6 + y_w25_c6 >= 0.4394
  lat_lin_w25_c7: x_w25_c7 + y_w25_c7 >= 0.4281
  lat_lin_w25_c8: x_w25_c8 + y_w25_c8 >= 0.4336
  lat_lin_w25_c9: x_w25_c9 + y_w25_c9 >= 0.0829
  lat_lin_w25_c10: x_w25_c10 + y_w25_c10 >= 0.0523
  lat_lin_w25_c11: x_w25_c11 + y_w25_c11 >= 0.3086
  lat_lin_w25_c12: x_w25_c12 + y_w25_c12 >= 0.3863
  lat_lin_w25_c13: x_w25_c13 + y_w25_c13 >= 0.2747
  lat_lin_w25_c14: x_w25_c14 + y_w25_c14 >= 0.4826
  lat_lin_w25_c15: x_w25_c15 + y_w25_c15 >= 0.3010
  lat_lin_w25_c16: x_w25_c16 + y_w25_c16 >= 0.3266
  lat_lin_w25_c17: x_w25_c17 + y_w25_c17 >= 0.0102
  lat_lin_w25_c18: x_w25_c18 + y_w25_c18 >= 0.3310
  lat_lin_w25_c19: x_w25_c19 + y_w25_c19 >= 0.4660
  lat_lin_w25_c20: x_w25_c20 + y_w25_c20 >= 0.0558
  lat_lin_w25_c21: x_w25_c21 + y_w25_c21 >= 0.4741
  lat_lin_w25_c22: x_w25_c22 + y_w25_c22 >= 0.1600
  lat_lin_w25_c23: x_w25_c23 + y_w25_c23 >= 0.5930
  lat_lin_w25_c24: x_w25_c24 + y_w25_c24 >= 0.0657
  demand_w25: x_w25_c0 + x_w25_c1 + x_w25_c2 + x_w25_c3 + x_w25_c4 + x_w25_c5 + x_w25_c6 + x_w25_c7 + x_w25_c8 + x_w25_c9 + x_w25_c10 + x_w25_c11 + x_w25_c12 + x_w25_c13 + x_w25_c14 + x_w25_c15 + x_w25_c16 + x_w25_c17 + x_w25_c18 + x_w25_c19 + x_w25_c20 + x_w25_c21 + x_w25_c22 + x_w25_c23 + x_w25_c24 = 8
  lat_lin_w26_c0: x_w26_c0 + y_w26_c0 >= 0.4582
  lat_lin_w26_c1: x_w26_c1 + y_w26_c1 >= 0.4902
  lat_lin_w26_c2: x_w26_c2 + y_w26_c2 >= 0.5894
  lat_lin_w26_c3: x_w26_c3 + y_w26_c3 >= 0.0521
  lat_lin_w26_c4: x_w26_c4 + y_w26_c4 >= 0.1719
  lat_lin_w26_c5: x_w26_c5 + y_w26_c5 >= 0.8134
  lat_lin_w26_c6: x_w26_c6 + y_w26_c6 >= 0.7602
  lat_lin_w26_c7: x_w26_c7 + y_w26_c7 >= 0.8523
  lat_lin_w26_c8: x_w26_c8 + y_w26_c8 >= 0.3945
  lat_lin_w26_c9: x_w26_c9 + y_w26_c9 >= 0.7818
  lat_lin_w26_c10: x_w26_c10 + y_w26_c10 >= 0.8506
  lat_lin_w26_c11: x_w26_c11 + y_w26_c11 >= 0.8416
  lat_lin_w26_c12: x_w26_c12 + y_w26_c12 >= 0.1360
  lat_lin_w26_c13: x_w26_c13 + y_w26_c13 >= 0.2020
  lat_lin_w26_c14: x_w26_c14 + y_w26_c14 >= 0.4320
  lat_lin_w26_c15: x_w26_c15 + y_w26_c15 >= 0.7442
  lat_lin_w26_c16: x_w26_c16 + y_w26_c16 >= 0.8555
  lat_lin_w26_c17: x_w26_c17 + y_w26_c17 >= 0.0581
  lat_lin_w26_c18: x_w26_c18 + y_w26_c18 >= 0.0980
  lat_lin_w26_c19: x_w26_c19 + y_w26_c19 >= 0.0920
  lat_lin_w26_c20: x_w26_c20 + y_w26_c20 >= 0.6810
  lat_lin_w26_c21: x_w26_c21 + y_w26_c21 >= 0.1219
  lat_lin_w26_c22: x_w26_c22 + y_w26_c22 >= 0.6470
  lat_lin_w26_c23: x_w26_c23 + y_w26_c23 >= 0.4587
  lat_lin_w26_c24: x_w26_c24 + y_w26_c24 >= 0.4172
  demand_w26: x_w26_c0 + x_w26_c1 + x_w26_c2 + x_w26_c3 + x_w26_c4 + x_w26_c5 + x_w26_c6 + x_w26_c7 + x_w26_c8 + x_w26_c9 + x_w26_c10 + x_w26_c11 + x_w26_c12 + x_w26_c13 + x_w26_c14 + x_w26_c15 + x_w26_c16 + x_w26_c17 + x_w26_c18 + x_w26_c19 + x_w26_c20 + x_w26_c21 + x_w26_c22 + x_w26_c23 + x_w26_c24 = 12
  lat_lin_w27_c0: x_w27_c0 + y_w27_c0 >= 0.1524
  lat_lin_w27_c1: x_w27_c1 + y_w27_c1 >= 0.1790
  lat_lin_w27_c2: x_w27_c2 + y_w27_c2 >= 0.2763
  lat_lin_w27_c3: x_w27_c3 + y_w27_c3 >= 0.0767
  lat_lin_w27_c4: x_w27_c4 + y_w27_c4 >= 0.6163
  lat_lin_w27_c5: x_w27_c5 + y_w27_c5 >= 0.0892
  lat_lin_w27_c6: x_w27_c6 + y_w27_c6 >= 0.1329
  lat_lin_w27_c7: x_w27_c7 + y_w27_c7 >= 0.4926
  lat_lin_w27_c8: x_w27_c8 + y_w27_c8 >= 0.1069
  lat_lin_w27_c9: x_w27_c9 + y_w27_c9 >= 0.2151
  lat_lin_w27_c10: x_w27_c10 + y_w27_c10 >= 0.2160
  lat_lin_w27_c11: x_w27_c11 + y_w27_c11 >= 0.4626
  lat_lin_w27_c12: x_w27_c12 + y_w27_c12 >= 0.2372
  lat_lin_w27_c13: x_w27_c13 + y_w27_c13 >= 0.4833
  lat_lin_w27_c14: x_w27_c14 + y_w27_c14 >= 0.6811
  lat_lin_w27_c15: x_w27_c15 + y_w27_c15 >= 0.6686
  lat_lin_w27_c16: x_w27_c16 + y_w27_c16 >= 0.6901
  lat_lin_w27_c17: x_w27_c17 + y_w27_c17 >= 0.3264
  lat_lin_w27_c18: x_w27_c18 + y_w27_c18 >= 0.1569
  lat_lin_w27_c19: x_w27_c19 + y_w27_c19 >= 0.7159
  lat_lin_w27_c20: x_w27_c20 + y_w27_c20 >= 0.0342
  lat_lin_w27_c21: x_w27_c21 + y_w27_c21 >= 0.3722
  lat_lin_w27_c22: x_w27_c22 + y_w27_c22 >= 0.0516
  lat_lin_w27_c23: x_w27_c23 + y_w27_c23 >= 0.3706
  lat_lin_w27_c24: x_w27_c24 + y_w27_c24 >= 0.1958
  demand_w27: x_w27_c0 + x_w27_c1 + x_w27_c2 + x_w27_c3 + x_w27_c4 + x_w27_c5 + x_w27_c6 + x_w27_c7 + x_w27_c8 + x_w27_c9 + x_w27_c10 + x_w27_c11 + x_w27_c12 + x_w27_c13 + x_w27_c14 + x_w27_c15 + x_w27_c16 + x_w27_c17 + x_w27_c18 + x_w27_c19 + x_w27_c20 + x_w27_c21 + x_w27_c22 + x_w27_c23 + x_w27_c24 = 8
  lat_lin_w28_c0: x_w28_c0 + y_w28_c0 >= 0.2042
  lat_lin_w28_c1: x_w28_c1 + y_w28_c1 >= 0.0148
  lat_lin_w28_c2: x_w28_c2 + y_w28_c2 >= 0.0714
  lat_lin_w28_c3: x_w28_c3 + y_w28_c3 >= 0.1735
  lat_lin_w28_c4: x_w28_c4 + y_w28_c4 >= 0.1904
  lat_lin_w28_c5: x_w28_c5 + y_w28_c5 >= 0.2552
  lat_lin_w28_c6: x_w28_c6 + y_w28_c6 >= 0.0062
  lat_lin_w28_c7: x_w28_c7 + y_w28_c7 >= 0.3379
  lat_lin_w28_c8: x_w28_c8 + y_w28_c8 >= 0.0351
  lat_lin_w28_c9: x_w28_c9 + y_w28_c9 >= 0.1403
  lat_lin_w28_c10: x_w28_c10 + y_w28_c10 >= 0.1476
  lat_lin_w28_c11: x_w28_c11 + y_w28_c11 >= 0.1682
  lat_lin_w28_c12: x_w28_c12 + y_w28_c12 >= 0.2923
  lat_lin_w28_c13: x_w28_c13 + y_w28_c13 >= 0.0164
  lat_lin_w28_c14: x_w28_c14 + y_w28_c14 >= 0.3116
  lat_lin_w28_c15: x_w28_c15 + y_w28_c15 >= 0.0605
  lat_lin_w28_c16: x_w28_c16 + y_w28_c16 >= 0.0040
  lat_lin_w28_c17: x_w28_c17 + y_w28_c17 >= 0.2970
  lat_lin_w28_c18: x_w28_c18 + y_w28_c18 >= 0.1084
  lat_lin_w28_c19: x_w28_c19 + y_w28_c19 >= 0.0084
  lat_lin_w28_c20: x_w28_c20 + y_w28_c20 >= 0.0708
  lat_lin_w28_c21: x_w28_c21 + y_w28_c21 >= 0.2830
  lat_lin_w28_c22: x_w28_c22 + y_w28_c22 >= 0.2089
  lat_lin_w28_c23: x_w28_c23 + y_w28_c23 >= 0.2983
  lat_lin_w28_c24: x_w28_c24 + y_w28_c24 >= 0.2958
  demand_w28: x_w28_c0 + x_w28_c1 + x_w28_c2 + x_w28_c3 + x_w28_c4 + x_w28_c5 + x_w28_c6 + x_w28_c7 + x_w28_c8 + x_w28_c9 + x_w28_c10 + x_w28_c11 + x_w28_c12 + x_w28_c13 + x_w28_c14 + x_w28_c15 + x_w28_c16 + x_w28_c17 + x_w28_c18 + x_w28_c19 + x_w28_c20 + x_w28_c21 + x_w28_c22 + x_w28_c23 + x_w28_c24 = 4
  lat_lin_w29_c0: x_w29_c0 + y_w29_c0 >= 0.4131
  lat_lin_w29_c1: x_w29_c1 + y_w29_c1 >= 0.4676
  lat_lin_w29_c2: x_w29_c2 + y_w29_c2 >= 0.4019
  lat_lin_w29_c3: x_w29_c3 + y_w29_c3 >= 0.4433
  lat_lin_w29_c4: x_w29_c4 + y_w29_c4 >= 0.1684
  lat_lin_w29_c5: x_w29_c5 + y_w29_c5 >= 0.4722
  lat_lin_w29_c6: x_w29_c6 + y_w29_c6 >= 0.1355
  lat_lin_w29_c7: x_w29_c7 + y_w29_c7 >= 0.2901
  lat_lin_w29_c8: x_w29_c8 + y_w29_c8 >= 0.1654
  lat_lin_w29_c9: x_w29_c9 + y_w29_c9 >= 0.4139
  lat_lin_w29_c10: x_w29_c10 + y_w29_c10 >= 0.2161
  lat_lin_w29_c11: x_w29_c11 + y_w29_c11 >= 0.0283
  lat_lin_w29_c12: x_w29_c12 + y_w29_c12 >= 0.4439
  lat_lin_w29_c13: x_w29_c13 + y_w29_c13 >= 0.1444
  lat_lin_w29_c14: x_w29_c14 + y_w29_c14 >= 0.1312
  lat_lin_w29_c15: x_w29_c15 + y_w29_c15 >= 0.4739
  lat_lin_w29_c16: x_w29_c16 + y_w29_c16 >= 0.3300
  lat_lin_w29_c17: x_w29_c17 + y_w29_c17 >= 0.4141
  lat_lin_w29_c18: x_w29_c18 + y_w29_c18 >= 0.2233
  lat_lin_w29_c19: x_w29_c19 + y_w29_c19 >= 0.0459
  lat_lin_w29_c20: x_w29_c20 + y_w29_c20 >= 0.1739
  lat_lin_w29_c21: x_w29_c21 + y_w29_c21 >= 0.0804
  lat_lin_w29_c22: x_w29_c22 + y_w29_c22 >= 0.2757
  lat_lin_w29_c23: x_w29_c23 + y_w29_c23 >= 0.3174
  lat_lin_w29_c24: x_w29_c24 + y_w29_c24 >= 0.3301
  demand_w29: x_w29_c0 + x_w29_c1 + x_w29_c2 + x_w29_c3 + x_w29_c4 + x_w29_c5 + x_w29_c6 + x_w29_c7 + x_w29_c8 + x_w29_c9 + x_w29_c10 + x_w29_c11 + x_w29_c12 + x_w29_c13 + x_w29_c14 + x_w29_c15 + x_w29_c16 + x_w29_c17 + x_w29_c18 + x_w29_c19 + x_w29_c20 + x_w29_c21 + x_w29_c22 + x_w29_c23 + x_w29_c24 = 7
  lat_lin_w30_c0: x_w30_c0 + y_w30_c0 >= 0.2113
  lat_lin_w30_c1: x_w30_c1 + y_w30_c1 >= 0.3545
  lat_lin_w30_c2: x_w30_c2 + y_w30_c2 >= 0.1642
  lat_lin_w30_c3: x_w30_c3 + y_w30_c3 >= 0.1467
  lat_lin_w30_c4: x_w30_c4 + y_w30_c4 >= 0.5479
  lat_lin_w30_c5: x_w30_c5 + y_w30_c5 >= 0.5359
  lat_lin_w30_c6: x_w30_c6 + y_w30_c6 >= 0.2583
  lat_lin_w30_c7: x_w30_c7 + y_w30_c7 >= 0.4288
  lat_lin_w30_c8: x_w30_c8 + y_w30_c8 >= 0.0968
  lat_lin_w30_c9: x_w30_c9 + y_w30_c9 >= 0.2488
  lat_lin_w30_c10: x_w30_c10 + y_w30_c10 >= 0.4900
  lat_lin_w30_c11: x_w30_c11 + y_w30_c11 >= 0.4930
  lat_lin_w30_c12: x_w30_c12 + y_w30_c12 >= 0.3535
  lat_lin_w30_c13: x_w30_c13 + y_w30_c13 >= 0.1059
  lat_lin_w30_c14: x_w30_c14 + y_w30_c14 >= 0.4542
  lat_lin_w30_c15: x_w30_c15 + y_w30_c15 >= 0.3031
  lat_lin_w30_c16: x_w30_c16 + y_w30_c16 >= 0.0879
  lat_lin_w30_c17: x_w30_c17 + y_w30_c17 >= 0.4100
  lat_lin_w30_c18: x_w30_c18 + y_w30_c18 >= 0.1873
  lat_lin_w30_c19: x_w30_c19 + y_w30_c19 >= 0.1729
  lat_lin_w30_c20: x_w30_c20 + y_w30_c20 >= 0.0158
  lat_lin_w30_c21: x_w30_c21 + y_w30_c21 >= 0.3395
  lat_lin_w30_c22: x_w30_c22 + y_w30_c22 >= 0.0139
  lat_lin_w30_c23: x_w30_c23 + y_w30_c23 >= 0.2779
  lat_lin_w30_c24: x_w30_c24 + y_w30_c24 >= 0.3018
  demand_w30: x_w30_c0 + x_w30_c1 + x_w30_c2 + x_w30_c3 + x_w30_c4 + x_w30_c5 + x_w30_c6 + x_w30_c7 + x_w30_c8 + x_w30_c9 + x_w30_c10 + x_w30_c11 + x_w30_c12 + x_w30_c13 + x_w30_c14 + x_w30_c15 + x_w30_c16 + x_w30_c17 + x_w30_c18 + x_w30_c19 + x_w30_c20 + x_w30_c21 + x_w30_c22 + x_w30_c23 + x_w30_c24 = 7
  lat_lin_w31_c0: x_w31_c0 + y_w31_c0 >= 0.4617
  lat_lin_w31_c1: x_w31_c1 + y_w31_c1 >= 0.4470
  lat_lin_w31_c2: x_w31_c2 + y_w31_c2 >= 0.3336
  lat_lin_w31_c3: x_w31_c3 + y_w31_c3 >= 0.5547
  lat_lin_w31_c4: x_w31_c4 + y_w31_c4 >= 0.4517
  lat_lin_w31_c5: x_w31_c5 + y_w31_c5 >= 0.3823
  lat_lin_w31_c6: x_w31_c6 + y_w31_c6 >= 0.0212
  lat_lin_w31_c7: x_w31_c7 + y_w31_c7 >= 0.3877
  lat_lin_w31_c8: x_w31_c8 + y_w31_c8 >= 0.2550
  lat_lin_w31_c9: x_w31_c9 + y_w31_c9 >= 0.2089
  lat_lin_w31_c10: x_w31_c10 + y_w31_c10 >= 0.2331
  lat_lin_w31_c11: x_w31_c11 + y_w31_c11 >= 0.3470
  lat_lin_w31_c12: x_w31_c12 + y_w31_c12 >= 0.3682
  lat_lin_w31_c13: x_w31_c13 + y_w31_c13 >= 0.3539
  lat_lin_w31_c14: x_w31_c14 + y_w31_c14 >= 0.0499
  lat_lin_w31_c15: x_w31_c15 + y_w31_c15 >= 0.2480
  lat_lin_w31_c16: x_w31_c16 + y_w31_c16 >= 0.5988
  lat_lin_w31_c17: x_w31_c17 + y_w31_c17 >= 0.5007
  lat_lin_w31_c18: x_w31_c18 + y_w31_c18 >= 0.0322
  lat_lin_w31_c19: x_w31_c19 + y_w31_c19 >= 0.1253
  lat_lin_w31_c20: x_w31_c20 + y_w31_c20 >= 0.4220
  lat_lin_w31_c21: x_w31_c21 + y_w31_c21 >= 0.2065
  lat_lin_w31_c22: x_w31_c22 + y_w31_c22 >= 0.1723
  lat_lin_w31_c23: x_w31_c23 + y_w31_c23 >= 0.3389
  lat_lin_w31_c24: x_w31_c24 + y_w31_c24 >= 0.4997
  demand_w31: x_w31_c0 + x_w31_c1 + x_w31_c2 + x_w31_c3 + x_w31_c4 + x_w31_c5 + x_w31_c6 + x_w31_c7 + x_w31_c8 + x_w31_c9 + x_w31_c10 + x_w31_c11 + x_w31_c12 + x_w31_c13 + x_w31_c14 + x_w31_c15 + x_w31_c16 + x_w31_c17 + x_w31_c18 + x_w31_c19 + x_w31_c20 + x_w31_c21 + x_w31_c22 + x_w31_c23 + x_w31_c24 = 8
  lat_lin_w32_c0: x_w32_c0 + y_w32_c0 >= 0.2116
  lat_lin_w32_c1: x_w32_c1 + y_w32_c1 >= 0.0557
  lat_lin_w32_c2: x_w32_c2 + y_w32_c2 >= 0.2117
  lat_lin_w32_c3: x_w32_c3 + y_w32_c3 >= 0.1028
  lat_lin_w32_c4: x_w32_c4 + y_w32_c4 >= 0.3327
  lat_lin_w32_c5: x_w32_c5 + y_w32_c5 >= 0.0652
  lat_lin_w32_c6: x_w32_c6 + y_w32_c6 >= 0.1647
  lat_lin_w32_c7: x_w32_c7 + y_w32_c7 >= 0.2167
  lat_lin_w32_c8: x_w32_c8 + y_w32_c8 >= 0.1015
  lat_lin_w32_c9: x_w32_c9 + y_w32_c9 >= 0.4475
  lat_lin_w32_c10: x_w32_c10 + y_w32_c10 >= 0.2761
  lat_lin_w32_c11: x_w32_c11 + y_w32_c11 >= 0.0910
  lat_lin_w32_c12: x_w32_c12 + y_w32_c12 >= 0.0306
  lat_lin_w32_c13: x_w32_c13 + y_w32_c13 >= 0.4157
  lat_lin_w32_c14: x_w32_c14 + y_w32_c14 >= 0.1944
  lat_lin_w32_c15: x_w32_c15 + y_w32_c15 >= 0.0801
  lat_lin_w32_c16: x_w32_c16 + y_w32_c16 >= 0.1221
  lat_lin_w32_c17: x_w32_c17 + y_w32_c17 >= 0.3743
  lat_lin_w32_c18: x_w32_c18 + y_w32_c18 >= 0.1364
  lat_lin_w32_c19: x_w32_c19 + y_w32_c19 >= 0.2978
  lat_lin_w32_c20: x_w32_c20 + y_w32_c20 >= 0.0181
  lat_lin_w32_c21: x_w32_c21 + y_w32_c21 >= 0.1133
  lat_lin_w32_c22: x_w32_c22 + y_w32_c22 >= 0.2428
  lat_lin_w32_c23: x_w32_c23 + y_w32_c23 >= 0.3353
  lat_lin_w32_c24: x_w32_c24 + y_w32_c24 >= 0.3621
  demand_w32: x_w32_c0 + x_w32_c1 + x_w32_c2 + x_w32_c3 + x_w32_c4 + x_w32_c5 + x_w32_c6 + x_w32_c7 + x_w32_c8 + x_w32_c9 + x_w32_c10 + x_w32_c11 + x_w32_c12 + x_w32_c13 + x_w32_c14 + x_w32_c15 + x_w32_c16 + x_w32_c17 + x_w32_c18 + x_w32_c19 + x_w32_c20 + x_w32_c21 + x_w32_c22 + x_w32_c23 + x_w32_c24 = 5
  lat_lin_w33_c0: x_w33_c0 + y_w33_c0 >= 0.5238
  lat_lin_w33_c1: x_w33_c1 + y_w33_c1 >= 0.2177
  lat_lin_w33_c2: x_w33_c2 + y_w33_c2 >= 0.3363
  lat_lin_w33_c3: x_w33_c3 + y_w33_c3 >= 0.3972
  lat_lin_w33_c4: x_w33_c4 + y_w33_c4 >= 0.2300
  lat_lin_w33_c5: x_w33_c5 + y_w33_c5 >= 0.6710
  lat_lin_w33_c6: x_w33_c6 + y_w33_c6 >= 0.6355
  lat_lin_w33_c7: x_w33_c7 + y_w33_c7 >= 0.7624
  lat_lin_w33_c8: x_w33_c8 + y_w33_c8 >= 0.5564
  lat_lin_w33_c9: x_w33_c9 + y_w33_c9 >= 0.6189
  lat_lin_w33_c10: x_w33_c10 + y_w33_c10 >= 0.5834
  lat_lin_w33_c11: x_w33_c11 + y_w33_c11 >= 0.4918
  lat_lin_w33_c12: x_w33_c12 + y_w33_c12 >= 0.6247
  lat_lin_w33_c13: x_w33_c13 + y_w33_c13 >= 0.0908
  lat_lin_w33_c14: x_w33_c14 + y_w33_c14 >= 0.6797
  lat_lin_w33_c15: x_w33_c15 + y_w33_c15 >= 0.3947
  lat_lin_w33_c16: x_w33_c16 + y_w33_c16 >= 0.5370
  lat_lin_w33_c17: x_w33_c17 + y_w33_c17 >= 0.1163
  lat_lin_w33_c18: x_w33_c18 + y_w33_c18 >= 0.3580
  lat_lin_w33_c19: x_w33_c19 + y_w33_c19 >= 0.1848
  lat_lin_w33_c20: x_w33_c20 + y_w33_c20 >= 0.4767
  lat_lin_w33_c21: x_w33_c21 + y_w33_c21 >= 0.1259
  lat_lin_w33_c22: x_w33_c22 + y_w33_c22 >= 0.3695
  lat_lin_w33_c23: x_w33_c23 + y_w33_c23 >= 0.4061
  lat_lin_w33_c24: x_w33_c24 + y_w33_c24 >= 0.6114
  demand_w33: x_w33_c0 + x_w33_c1 + x_w33_c2 + x_w33_c3 + x_w33_c4 + x_w33_c5 + x_w33_c6 + x_w33_c7 + x_w33_c8 + x_w33_c9 + x_w33_c10 + x_w33_c11 + x_w33_c12 + x_w33_c13 + x_w33_c14 + x_w33_c15 + x_w33_c16 + x_w33_c17 + x_w33_c18 + x_w33_c19 + x_w33_c20 + x_w33_c21 + x_w33_c22 + x_w33_c23 + x_w33_c24 = 11
  lat_lin_w34_c0: x_w34_c0 + y_w34_c0 >= 0.1804
  lat_lin_w34_c1: x_w34_c1 + y_w34_c1 >= 0.1469
  lat_lin_w34_c2: x_w34_c2 + y_w34_c2 >= 0.2369
  lat_lin_w34_c3: x_w34_c3 + y_w34_c3 >= 0.2699
  lat_lin_w34_c4: x_w34_c4 + y_w34_c4 >= 0.5199
  lat_lin_w34_c5: x_w34_c5 + y_w34_c5 >= 0.3948
  lat_lin_w34_c6: x_w34_c6 + y_w34_c6 >= 0.1525
  lat_lin_w34_c7: x_w34_c7 + y_w34_c7 >= 0.5686
  lat_lin_w34_c8: x_w34_c8 + y_w34_c8 >= 0.2293
  lat_lin_w34_c9: x_w34_c9 + y_w34_c9 >= 0.4995
  lat_lin_w34_c10: x_w34_c10 + y_w34_c10 >= 0.3746
  lat_lin_w34_c11: x_w34_c11 + y_w34_c11 >= 0.1431
  lat_lin_w34_c12: x_w34_c12 + y_w34_c12 >= 0.2021
  lat_lin_w34_c13: x_w34_c13 + y_w34_c13 >= 0.4825
  lat_lin_w34_c14: x_w34_c14 + y_w34_c14 >= 0.3119
  lat_lin_w34_c15: x_w34_c15 + y_w34_c15 >= 0.1359
  lat_lin_w34_c16: x_w34_c16 + y_w34_c16 >= 0.2650
  lat_lin_w34_c17: x_w34_c17 + y_w34_c17 >= 0.4723
  lat_lin_w34_c18: x_w34_c18 + y_w34_c18 >= 0.4720
  lat_lin_w34_c19: x_w34_c19 + y_w34_c19 >= 0.4461
  lat_lin_w34_c20: x_w34_c20 + y_w34_c20 >= 0.1561
  lat_lin_w34_c21: x_w34_c21 + y_w34_c21 >= 0.0099
  lat_lin_w34_c22: x_w34_c22 + y_w34_c22 >= 0.0205
  lat_lin_w34_c23: x_w34_c23 + y_w34_c23 >= 0.1863
  lat_lin_w34_c24: x_w34_c24 + y_w34_c24 >= 0.1232
  demand_w34: x_w34_c0 + x_w34_c1 + x_w34_c2 + x_w34_c3 + x_w34_c4 + x_w34_c5 + x_w34_c6 + x_w34_c7 + x_w34_c8 + x_w34_c9 + x_w34_c10 + x_w34_c11 + x_w34_c12 + x_w34_c13 + x_w34_c14 + x_w34_c15 + x_w34_c16 + x_w34_c17 + x_w34_c18 + x_w34_c19 + x_w34_c20 + x_w34_c21 + x_w34_c22 + x_w34_c23 + x_w34_c24 = 7
  lat_lin_w35_c0: x_w35_c0 + y_w35_c0 >= 0.0624
  lat_lin_w35_c1: x_w35_c1 + y_w35_c1 >= 0.9421
  lat_lin_w35_c2: x_w35_c2 + y_w35_c2 >= 0.7606
  lat_lin_w35_c3: x_w35_c3 + y_w35_c3 >= 0.8543
  lat_lin_w35_c4: x_w35_c4 + y_w35_c4 >= 0.6879
  lat_lin_w35_c5: x_w35_c5 + y_w35_c5 >= 0.6106
  lat_lin_w35_c6: x_w35_c6 + y_w35_c6 >= 0.0937
  lat_lin_w35_c7: x_w35_c7 + y_w35_c7 >= 0.6338
  lat_lin_w35_c8: x_w35_c8 + y_w35_c8 >= 0.5435
  lat_lin_w35_c9: x_w35_c9 + y_w35_c9 >= 0.8091
  lat_lin_w35_c10: x_w35_c10 + y_w35_c10 >= 0.9826
  lat_lin_w35_c11: x_w35_c11 + y_w35_c11 >= 0.6083
  lat_lin_w35_c12: x_w35_c12 + y_w35_c12 >= 0.3753
  lat_lin_w35_c13: x_w35_c13 + y_w35_c13 >= 0.2611
  lat_lin_w35_c14: x_w35_c14 + y_w35_c14 >= 0.5085
  lat_lin_w35_c15: x_w35_c15 + y_w35_c15 >= 0.6558
  lat_lin_w35_c16: x_w35_c16 + y_w35_c16 >= 0.8450
  lat_lin_w35_c17: x_w35_c17 + y_w35_c17 >= 0.3141
  lat_lin_w35_c18: x_w35_c18 + y_w35_c18 >= 0.2250
  lat_lin_w35_c19: x_w35_c19 + y_w35_c19 >= 0.3954
  lat_lin_w35_c20: x_w35_c20 + y_w35_c20 >= 0.3702
  lat_lin_w35_c21: x_w35_c21 + y_w35_c21 >= 0.6788
  lat_lin_w35_c22: x_w35_c22 + y_w35_c22 >= 0.3708
  lat_lin_w35_c23: x_w35_c23 + y_w35_c23 >= 0.6916
  lat_lin_w35_c24: x_w35_c24 + y_w35_c24 >= 0.7194
  demand_w35: x_w35_c0 + x_w35_c1 + x_w35_c2 + x_w35_c3 + x_w35_c4 + x_w35_c5 + x_w35_c6 + x_w35_c7 + x_w35_c8 + x_w35_c9 + x_w35_c10 + x_w35_c11 + x_w35_c12 + x_w35_c13 + x_w35_c14 + x_w35_c15 + x_w35_c16 + x_w35_c17 + x_w35_c18 + x_w35_c19 + x_w35_c20 + x_w35_c21 + x_w35_c22 + x_w35_c23 + x_w35_c24 = 14
  lat_lin_w36_c0: x_w36_c0 + y_w36_c0 >= 0.1260
  lat_lin_w36_c1: x_w36_c1 + y_w36_c1 >= 0.3357
  lat_lin_w36_c2: x_w36_c2 + y_w36_c2 >= 0.1585
  lat_lin_w36_c3: x_w36_c3 + y_w36_c3 >= 0.3230
  lat_lin_w36_c4: x_w36_c4 + y_w36_c4 >= 0.2186
  lat_lin_w36_c5: x_w36_c5 + y_w36_c5 >= 0.3162
  lat_lin_w36_c6: x_w36_c6 + y_w36_c6 >= 0.3426
  lat_lin_w36_c7: x_w36_c7 + y_w36_c7 >= 0.1164
  lat_lin_w36_c8: x_w36_c8 + y_w36_c8 >= 0.2504
  lat_lin_w36_c9: x_w36_c9 + y_w36_c9 >= 0.3308
  lat_lin_w36_c10: x_w36_c10 + y_w36_c10 >= 0.2260
  lat_lin_w36_c11: x_w36_c11 + y_w36_c11 >= 0.3492
  lat_lin_w36_c12: x_w36_c12 + y_w36_c12 >= 0.2598
  lat_lin_w36_c13: x_w36_c13 + y_w36_c13 >= 0.1697
  lat_lin_w36_c14: x_w36_c14 + y_w36_c14 >= 0.1333
  lat_lin_w36_c15: x_w36_c15 + y_w36_c15 >= 0.2673
  lat_lin_w36_c16: x_w36_c16 + y_w36_c16 >= 0.0546
  lat_lin_w36_c17: x_w36_c17 + y_w36_c17 >= 0.0298
  lat_lin_w36_c18: x_w36_c18 + y_w36_c18 >= 0.0524
  lat_lin_w36_c19: x_w36_c19 + y_w36_c19 >= 0.1662
  lat_lin_w36_c20: x_w36_c20 + y_w36_c20 >= 0.0632
  lat_lin_w36_c21: x_w36_c21 + y_w36_c21 >= 0.1746
  lat_lin_w36_c22: x_w36_c22 + y_w36_c22 >= 0.1687
  lat_lin_w36_c23: x_w36_c23 + y_w36_c23 >= 0.2916
  lat_lin_w36_c24: x_w36_c24 + y_w36_c24 >= 0.0754
  demand_w36: x_w36_c0 + x_w36_c1 + x_w36_c2 + x_w36_c3 + x_w36_c4 + x_w36_c5 + x_w36_c6 + x_w36_c7 + x_w36_c8 + x_w36_c9 + x_w36_c10 + x_w36_c11 + x_w36_c12 + x_w36_c13 + x_w36_c14 + x_w36_c15 + x_w36_c16 + x_w36_c17 + x_w36_c18 + x_w36_c19 + x_w36_c20 + x_w36_c21 + x_w36_c22 + x_w36_c23 + x_w36_c24 = 5
  lat_lin_w37_c0: x_w37_c0 + y_w37_c0 >= 0.0777
  lat_lin_w37_c1: x_w37_c1 + y_w37_c1 >= 0.0097
  lat_lin_w37_c2: x_w37_c2 + y_w37_c2 >= 0.1989
  lat_lin_w37_c3: x_w37_c3 + y_w37_c3 >= 0.1695
  lat_lin_w37_c4: x_w37_c4 + y_w37_c4 >= 0.0285
  lat_lin_w37_c5: x_w37_c5 + y_w37_c5 >= 0.1799
  lat_lin_w37_c6: x_w37_c6 + y_w37_c6 >= 0.0909
  lat_lin_w37_c7: x_w37_c7 + y_w37_c7 >= 0.0133
  lat_lin_w37_c8: x_w37_c8 + y_w37_c8 >= 0.2096
  lat_lin_w37_c9: x_w37_c9 + y_w37_c9 >= 0.0632
  lat_lin_w37_c10: x_w37_c10 + y_w37_c10 >= 0.1105
  lat_lin_w37_c11: x_w37_c11 + y_w37_c11 >= 0.1403
  lat_lin_w37_c12: x_w37_c12 + y_w37_c12 >= 0.2197
  lat_lin_w37_c13: x_w37_c13 + y_w37_c13 >= 0.1266
  lat_lin_w37_c14: x_w37_c14 + y_w37_c14 >= 0.2016
  lat_lin_w37_c15: x_w37_c15 + y_w37_c15 >= 0.1254
  lat_lin_w37_c16: x_w37_c16 + y_w37_c16 >= 0.0540
  lat_lin_w37_c17: x_w37_c17 + y_w37_c17 >= 0.0927
  lat_lin_w37_c18: x_w37_c18 + y_w37_c18 >= 0.0700
  lat_lin_w37_c19: x_w37_c19 + y_w37_c19 >= 0.1786
  lat_lin_w37_c20: x_w37_c20 + y_w37_c20 >= 0.1471
  lat_lin_w37_c21: x_w37_c21 + y_w37_c21 >= 0.0320
  lat_lin_w37_c22: x_w37_c22 + y_w37_c22 >= 0.1301
  lat_lin_w37_c23: x_w37_c23 + y_w37_c23 >= 0.2089
  lat_lin_w37_c24: x_w37_c24 + y_w37_c24 >= 0.1213
  demand_w37: x_w37_c0 + x_w37_c1 + x_w37_c2 + x_w37_c3 + x_w37_c4 + x_w37_c5 + x_w37_c6 + x_w37_c7 + x_w37_c8 + x_w37_c9 + x_w37_c10 + x_w37_c11 + x_w37_c12 + x_w37_c13 + x_w37_c14 + x_w37_c15 + x_w37_c16 + x_w37_c17 + x_w37_c18 + x_w37_c19 + x_w37_c20 + x_w37_c21 + x_w37_c22 + x_w37_c23 + x_w37_c24 = 3
  lat_lin_w38_c0: x_w38_c0 + y_w38_c0 >= 0.1278
  lat_lin_w38_c1: x_w38_c1 + y_w38_c1 >= 0.0159
  lat_lin_w38_c2: x_w38_c2 + y_w38_c2 >= 0.1818
  lat_lin_w38_c3: x_w38_c3 + y_w38_c3 >= 0.1293
  lat_lin_w38_c4: x_w38_c4 + y_w38_c4 >= 0.0244
  lat_lin_w38_c5: x_w38_c5 + y_w38_c5 >= 0.0210
  lat_lin_w38_c6: x_w38_c6 + y_w38_c6 >= 0.1503
  lat_lin_w38_c7: x_w38_c7 + y_w38_c7 >= 0.1276
  lat_lin_w38_c8: x_w38_c8 + y_w38_c8 >= 0.2132
  lat_lin_w38_c9: x_w38_c9 + y_w38_c9 >= 0.1458
  lat_lin_w38_c10: x_w38_c10 + y_w38_c10 >= 0.0460
  lat_lin_w38_c11: x_w38_c11 + y_w38_c11 >= 0.0927
  lat_lin_w38_c12: x_w38_c12 + y_w38_c12 >= 0.2523
  lat_lin_w38_c13: x_w38_c13 + y_w38_c13 >= 0.2070
  lat_lin_w38_c14: x_w38_c14 + y_w38_c14 >= 0.0028
  lat_lin_w38_c15: x_w38_c15 + y_w38_c15 >= 0.0379
  lat_lin_w38_c16: x_w38_c16 + y_w38_c16 >= 0.1624
  lat_lin_w38_c17: x_w38_c17 + y_w38_c17 >= 0.1362
  lat_lin_w38_c18: x_w38_c18 + y_w38_c18 >= 0.0553
  lat_lin_w38_c19: x_w38_c19 + y_w38_c19 >= 0.0285
  lat_lin_w38_c20: x_w38_c20 + y_w38_c20 >= 0.1221
  lat_lin_w38_c21: x_w38_c21 + y_w38_c21 >= 0.1063
  lat_lin_w38_c22: x_w38_c22 + y_w38_c22 >= 0.2188
  lat_lin_w38_c23: x_w38_c23 + y_w38_c23 >= 0.1661
  lat_lin_w38_c24: x_w38_c24 + y_w38_c24 >= 0.2283
  demand_w38: x_w38_c0 + x_w38_c1 + x_w38_c2 + x_w38_c3 + x_w38_c4 + x_w38_c5 + x_w38_c6 + x_w38_c7 + x_w38_c8 + x_w38_c9 + x_w38_c10 + x_w38_c11 + x_w38_c12 + x_w38_c13 + x_w38_c14 + x_w38_c15 + x_w38_c16 + x_w38_c17 + x_w38_c18 + x_w38_c19 + x_w38_c20 + x_w38_c21 + x_w38_c22 + x_w38_c23 + x_w38_c24 = 3
  lat_lin_w39_c0: x_w39_c0 + y_w39_c0 >= 0.6415
  lat_lin_w39_c1: x_w39_c1 + y_w39_c1 >= 0.4072
  lat_lin_w39_c2: x_w39_c2 + y_w39_c2 >= 0.0093
  lat_lin_w39_c3: x_w39_c3 + y_w39_c3 >= 0.9757
  lat_lin_w39_c4: x_w39_c4 + y_w39_c4 >= 0.0761
  lat_lin_w39_c5: x_w39_c5 + y_w39_c5 >= 0.2077
  lat_lin_w39_c6: x_w39_c6 + y_w39_c6 >= 0.1737
  lat_lin_w39_c7: x_w39_c7 + y_w39_c7 >= 0.6117
  lat_lin_w39_c8: x_w39_c8 + y_w39_c8 >= 0.8970
  lat_lin_w39_c9: x_w39_c9 + y_w39_c9 >= 0.7643
  lat_lin_w39_c10: x_w39_c10 + y_w39_c10 >= 0.2609
  lat_lin_w39_c11: x_w39_c11 + y_w39_c11 >= 0.4018
  lat_lin_w39_c12: x_w39_c12 + y_w39_c12 >= 0.8019
  lat_lin_w39_c13: x_w39_c13 + y_w39_c13 >= 0.1913
  lat_lin_w39_c14: x_w39_c14 + y_w39_c14 >= 0.6143
  lat_lin_w39_c15: x_w39_c15 + y_w39_c15 >= 0.2273
  lat_lin_w39_c16: x_w39_c16 + y_w39_c16 >= 0.8224
  lat_lin_w39_c17: x_w39_c17 + y_w39_c17 >= 1.0797
  lat_lin_w39_c18: x_w39_c18 + y_w39_c18 >= 0.0201
  lat_lin_w39_c19: x_w39_c19 + y_w39_c19 >= 0.3831
  lat_lin_w39_c20: x_w39_c20 + y_w39_c20 >= 0.9526
  lat_lin_w39_c21: x_w39_c21 + y_w39_c21 >= 0.5498
  lat_lin_w39_c22: x_w39_c22 + y_w39_c22 >= 0.5831
  lat_lin_w39_c23: x_w39_c23 + y_w39_c23 >= 1.0427
  lat_lin_w39_c24: x_w39_c24 + y_w39_c24 >= 0.3047
  demand_w39: x_w39_c0 + x_w39_c1 + x_w39_c2 + x_w39_c3 + x_w39_c4 + x_w39_c5 + x_w39_c6 + x_w39_c7 + x_w39_c8 + x_w39_c9 + x_w39_c10 + x_w39_c11 + x_w39_c12 + x_w39_c13 + x_w39_c14 + x_w39_c15 + x_w39_c16 + x_w39_c17 + x_w39_c18 + x_w39_c19 + x_w39_c20 + x_w39_c21 + x_w39_c22 + x_w39_c23 + x_w39_c24 = 13
  lat_lin_w40_c0: x_w40_c0 + y_w40_c0 >= 0.0234
  lat_lin_w40_c1: x_w40_c1 + y_w40_c1 >= 0.3746
  lat_lin_w40_c2: x_w40_c2 + y_w40_c2 >= 0.2790
  lat_lin_w40_c3: x_w40_c3 + y_w40_c3 >= 0.0974
  lat_lin_w40_c4: x_w40_c4 + y_w40_c4 >= 0.5239
  lat_lin_w40_c5: x_w40_c5 + y_w40_c5 >= 0.3646
  lat_lin_w40_c6: x_w40_c6 + y_w40_c6 >= 0.3469
  lat_lin_w40_c7: x_w40_c7 + y_w40_c7 >= 0.3202
  lat_lin_w40_c8: x_w40_c8 + y_w40_c8 >= 0.0283
  lat_lin_w40_c9: x_w40_c9 + y_w40_c9 >= 0.4706
  lat_lin_w40_c10: x_w40_c10 + y_w40_c10 >= 0.4077
  lat_lin_w40_c11: x_w40_c11 + y_w40_c11 >= 0.3046
  lat_lin_w40_c12: x_w40_c12 + y_w40_c12 >= 0.3931
  lat_lin_w40_c13: x_w40_c13 + y_w40_c13 >= 0.1810
  lat_lin_w40_c14: x_w40_c14 + y_w40_c14 >= 0.3683
  lat_lin_w40_c15: x_w40_c15 + y_w40_c15 >= 0.3275
  lat_lin_w40_c16: x_w40_c16 + y_w40_c16 >= 0.3639
  lat_lin_w40_c17: x_w40_c17 + y_w40_c17 >= 0.2508
  lat_lin_w40_c18: x_w40_c18 + y_w40_c18 >= 0.5203
  lat_lin_w40_c19: x_w40_c19 + y_w40_c19 >= 0.5174
  lat_lin_w40_c20: x_w40_c20 + y_w40_c20 >= 0.0738
  lat_lin_w40_c21: x_w40_c21 + y_w40_c21 >= 0.2989
  lat_lin_w40_c22: x_w40_c22 + y_w40_c22 >= 0.1258
  lat_lin_w40_c23: x_w40_c23 + y_w40_c23 >= 0.5197
  lat_lin_w40_c24: x_w40_c24 + y_w40_c24 >= 0.5182
  demand_w40: x_w40_c0 + x_w40_c1 + x_w40_c2 + x_w40_c3 + x_w40_c4 + x_w40_c5 + x_w40_c6 + x_w40_c7 + x_w40_c8 + x_w40_c9 + x_w40_c10 + x_w40_c11 + x_w40_c12 + x_w40_c13 + x_w40_c14 + x_w40_c15 + x_w40_c16 + x_w40_c17 + x_w40_c18 + x_w40_c19 + x_w40_c20 + x_w40_c21 + x_w40_c22 + x_w40_c23 + x_w40_c24 = 8
  lat_lin_w41_c0: x_w41_c0 + y_w41_c0 >= 0.0833
  lat_lin_w41_c1: x_w41_c1 + y_w41_c1 >= 0.0294
  lat_lin_w41_c2: x_w41_c2 + y_w41_c2 >= 0.1329
  lat_lin_w41_c3: x_w41_c3 + y_w41_c3 >= 0.1714
  lat_lin_w41_c4: x_w41_c4 + y_w41_c4 >= 0.0162
  lat_lin_w41_c5: x_w41_c5 + y_w41_c5 >= 0.1959
  lat_lin_w41_c6: x_w41_c6 + y_w41_c6 >= 0.0891
  lat_lin_w41_c7: x_w41_c7 + y_w41_c7 >= 0.1366
  lat_lin_w41_c8: x_w41_c8 + y_w41_c8 >= 0.0879
  lat_lin_w41_c9: x_w41_c9 + y_w41_c9 >= 0.1466
  lat_lin_w41_c10: x_w41_c10 + y_w41_c10 >= 0.2327
  lat_lin_w41_c11: x_w41_c11 + y_w41_c11 >= 0.1475
  lat_lin_w41_c12: x_w41_c12 + y_w41_c12 >= 0.0564
  lat_lin_w41_c13: x_w41_c13 + y_w41_c13 >= 0.1209
  lat_lin_w41_c14: x_w41_c14 + y_w41_c14 >= 0.0555
  lat_lin_w41_c15: x_w41_c15 + y_w41_c15 >= 0.0854
  lat_lin_w41_c16: x_w41_c16 + y_w41_c16 >= 0.2230
  lat_lin_w41_c17: x_w41_c17 + y_w41_c17 >= 0.1861
  lat_lin_w41_c18: x_w41_c18 + y_w41_c18 >= 0.0394
  lat_lin_w41_c19: x_w41_c19 + y_w41_c19 >= 0.0262
  lat_lin_w41_c20: x_w41_c20 + y_w41_c20 >= 0.2017
  lat_lin_w41_c21: x_w41_c21 + y_w41_c21 >= 0.2174
  lat_lin_w41_c22: x_w41_c22 + y_w41_c22 >= 0.1476
  lat_lin_w41_c23: x_w41_c23 + y_w41_c23 >= 0.0575
  lat_lin_w41_c24: x_w41_c24 + y_w41_c24 >= 0.1133
  demand_w41: x_w41_c0 + x_w41_c1 + x_w41_c2 + x_w41_c3 + x_w41_c4 + x_w41_c5 + x_w41_c6 + x_w41_c7 + x_w41_c8 + x_w41_c9 + x_w41_c10 + x_w41_c11 + x_w41_c12 + x_w41_c13 + x_w41_c14 + x_w41_c15 + x_w41_c16 + x_w41_c17 + x_w41_c18 + x_w41_c19 + x_w41_c20 + x_w41_c21 + x_w41_c22 + x_w41_c23 + x_w41_c24 = 3
  lat_lin_w42_c0: x_w42_c0 + y_w42_c0 >= 0.4857
  lat_lin_w42_c1: x_w42_c1 + y_w42_c1 >= 0.4918
  lat_lin_w42_c2: x_w42_c2 + y_w42_c2 >= 0.3567
  lat_lin_w42_c3: x_w42_c3 + y_w42_c3 >= 0.5031
  lat_lin_w42_c4: x_w42_c4 + y_w42_c4 >= 0.6689
  lat_lin_w42_c5: x_w42_c5 + y_w42_c5 >= 0.4593
  lat_lin_w42_c6: x_w42_c6 + y_w42_c6 >= 0.2114
  lat_lin_w42_c7: x_w42_c7 + y_w42_c7 >= 0.5739
  lat_lin_w42_c8: x_w42_c8 + y_w42_c8 >= 0.2442
  lat_lin_w42_c9: x_w42_c9 + y_w42_c9 >= 0.2180
  lat_lin_w42_c10: x_w42_c10 + y_w42_c10 >= 0.6459
  lat_lin_w42_c11: x_w42_c11 + y_w42_c11 >= 0.5301
  lat_lin_w42_c12: x_w42_c12 + y_w42_c12 >= 0.6835
  lat_lin_w42_c13: x_w42_c13 + y_w42_c13 >= 0.1425
  lat_lin_w42_c14: x_w42_c14 + y_w42_c14 >= 0.2094
  lat_lin_w42_c15: x_w42_c15 + y_w42_c15 >= 0.6335
  lat_lin_w42_c16: x_w42_c16 + y_w42_c16 >= 0.4410
  lat_lin_w42_c17: x_w42_c17 + y_w42_c17 >= 0.0505
  lat_lin_w42_c18: x_w42_c18 + y_w42_c18 >= 0.4686
  lat_lin_w42_c19: x_w42_c19 + y_w42_c19 >= 0.2405
  lat_lin_w42_c20: x_w42_c20 + y_w42_c20 >= 0.2848
  lat_lin_w42_c21: x_w42_c21 + y_w42_c21 >= 0.1571
  lat_lin_w42_c22: x_w42_c22 + y_w42_c22 >= 0.3921
  lat_lin_w42_c23: x_w42_c23 + y_w42_c23 >= 0.5607
  lat_lin_w42_c24: x_w42_c24 + y_w42_c24 >= 0.3470
  demand_w42: x_w42_c0 + x_w42_c1 + x_w42_c2 + x_w42_c3 + x_w42_c4 + x_w42_c5 + x_w42_c6 + x_w42_c7 + x_w42_c8 + x_w42_c9 + x_w42_c10 + x_w42_c11 + x_w42_c12 + x_w42_c13 + x_w42_c14 + x_w42_c15 + x_w42_c16 + x_w42_c17 + x_w42_c18 + x_w42_c19 + x_w42_c20 + x_w42_c21 + x_w42_c22 + x_w42_c23 + x_w42_c24 = 10
  lat_lin_w43_c0: x_w43_c0 + y_w43_c0 >= 0.0964
  lat_lin_w43_c1: x_w43_c1 + y_w43_c1 >= 0.5493
  lat_lin_w43_c2: x_w43_c2 + y_w43_c2 >= 0.1999
  lat_lin_w43_c3: x_w43_c3 + y_w43_c3 >= 0.2921
  lat_lin_w43_c4: x_w43_c4 + y_w43_c4 >= 0.1822
  lat_lin_w43_c5: x_w43_c5 + y_w43_c5 >= 0.6055
  lat_lin_w43_c6: x_w43_c6 + y_w43_c6 >= 0.0830
  lat_lin_w43_c7: x_w43_c7 + y_w43_c7 >= 0.1408
  lat_lin_w43_c8: x_w43_c8 + y_w43_c8 >= 0.3687
  lat_lin_w43_c9: x_w43_c9 + y_w43_c9 >= 0.7458
  lat_lin_w43_c10: x_w43_c10 + y_w43_c10 >= 0.2475
  lat_lin_w43_c11: x_w43_c11 + y_w43_c11 >= 0.6953
  lat_lin_w43_c12: x_w43_c12 + y_w43_c12 >= 0.5611
  lat_lin_w43_c13: x_w43_c13 + y_w43_c13 >= 0.7241
  lat_lin_w43_c14: x_w43_c14 + y_w43_c14 >= 0.4489
  lat_lin_w43_c15: x_w43_c15 + y_w43_c15 >= 0.6619
  lat_lin_w43_c16: x_w43_c16 + y_w43_c16 >= 0.7474
  lat_lin_w43_c17: x_w43_c17 + y_w43_c17 >= 0.6956
  lat_lin_w43_c18: x_w43_c18 + y_w43_c18 >= 0.5311
  lat_lin_w43_c19: x_w43_c19 + y_w43_c19 >= 0.7084
  lat_lin_w43_c20: x_w43_c20 + y_w43_c20 >= 0.1068
  lat_lin_w43_c21: x_w43_c21 + y_w43_c21 >= 0.6903
  lat_lin_w43_c22: x_w43_c22 + y_w43_c22 >= 0.4731
  lat_lin_w43_c23: x_w43_c23 + y_w43_c23 >= 0.4222
  lat_lin_w43_c24: x_w43_c24 + y_w43_c24 >= 0.0224
  demand_w43: x_w43_c0 + x_w43_c1 + x_w43_c2 + x_w43_c3 + x_w43_c4 + x_w43_c5 + x_w43_c6 + x_w43_c7 + x_w43_c8 + x_w43_c9 + x_w43_c10 + x_w43_c11 + x_w43_c12 + x_w43_c13 + x_w43_c14 + x_w43_c15 + x_w43_c16 + x_w43_c17 + x_w43_c18 + x_w43_c19 + x_w43_c20 + x_w43_c21 + x_w43_c22 + x_w43_c23 + x_w43_c24 = 11
  lat_lin_w44_c0: x_w44_c0 + y_w44_c0 >= 0.0619
  lat_lin_w44_c1: x_w44_c1 + y_w44_c1 >= 0.2116
  lat_lin_w44_c2: x_w44_c2 + y_w44_c2 >= 0.2080
  lat_lin_w44_c3: x_w44_c3 + y_w44_c3 >= 0.1398
  lat_lin_w44_c4: x_w44_c4 + y_w44_c4 >= 0.0877
  lat_lin_w44_c5: x_w44_c5 + y_w44_c5 >= 0.1225
  lat_lin_w44_c6: x_w44_c6 + y_w44_c6 >= 0.1912
  lat_lin_w44_c7: x_w44_c7 + y_w44_c7 >= 0.1143
  lat_lin_w44_c8: x_w44_c8 + y_w44_c8 >= 0.2544
  lat_lin_w44_c9: x_w44_c9 + y_w44_c9 >= 0.2297
  lat_lin_w44_c10: x_w44_c10 + y_w44_c10 >= 0.0153
  lat_lin_w44_c11: x_w44_c11 + y_w44_c11 >= 0.0933
  lat_lin_w44_c12: x_w44_c12 + y_w44_c12 >= 0.0456
  lat_lin_w44_c13: x_w44_c13 + y_w44_c13 >= 0.1513
  lat_lin_w44_c14: x_w44_c14 + y_w44_c14 >= 0.1210
  lat_lin_w44_c15: x_w44_c15 + y_w44_c15 >= 0.0450
  lat_lin_w44_c16: x_w44_c16 + y_w44_c16 >= 0.0757
  lat_lin_w44_c17: x_w44_c17 + y_w44_c17 >= 0.1654
  lat_lin_w44_c18: x_w44_c18 + y_w44_c18 >= 0.1300
  lat_lin_w44_c19: x_w44_c19 + y_w44_c19 >= 0.0544
  lat_lin_w44_c20: x_w44_c20 + y_w44_c20 >= 0.1631
  lat_lin_w44_c21: x_w44_c21 + y_w44_c21 >= 0.0833
  lat_lin_w44_c22: x_w44_c22 + y_w44_c22 >= 0.1349
  lat_lin_w44_c23: x_w44_c23 + y_w44_c23 >= 0.0717
  lat_lin_w44_c24: x_w44_c24 + y_w44_c24 >= 0.0290
  demand_w44: x_w44_c0 + x_w44_c1 + x_w44_c2 + x_w44_c3 + x_w44_c4 + x_w44_c5 + x_w44_c6 + x_w44_c7 + x_w44_c8 + x_w44_c9 + x_w44_c10 + x_w44_c11 + x_w44_c12 + x_w44_c13 + x_w44_c14 + x_w44_c15 + x_w44_c16 + x_w44_c17 + x_w44_c18 + x_w44_c19 + x_w44_c20 + x_w44_c21 + x_w44_c22 + x_w44_c23 + x_w44_c24 = 3
  lat_lin_w45_c0: x_w45_c0 + y_w45_c0 >= 0.5137
  lat_lin_w45_c1: x_w45_c1 + y_w45_c1 >= 0.2728
  lat_lin_w45_c2: x_w45_c2 + y_w45_c2 >= 0.0315
  lat_lin_w45_c3: x_w45_c3 + y_w45_c3 >= 0.1468
  lat_lin_w45_c4: x_w45_c4 + y_w45_c4 >= 0.0917
  lat_lin_w45_c5: x_w45_c5 + y_w45_c5 >= 0.6851
  lat_lin_w45_c6: x_w45_c6 + y_w45_c6 >= 0.7179
  lat_lin_w45_c7: x_w45_c7 + y_w45_c7 >= 0.1373
  lat_lin_w45_c8: x_w45_c8 + y_w45_c8 >= 0.6542
  lat_lin_w45_c9: x_w45_c9 + y_w45_c9 >= 0.4939
  lat_lin_w45_c10: x_w45_c10 + y_w45_c10 >= 0.1535
  lat_lin_w45_c11: x_w45_c11 + y_w45_c11 >= 0.6200
  lat_lin_w45_c12: x_w45_c12 + y_w45_c12 >= 0.0913
  lat_lin_w45_c13: x_w45_c13 + y_w45_c13 >= 0.2559
  lat_lin_w45_c14: x_w45_c14 + y_w45_c14 >= 0.0059
  lat_lin_w45_c15: x_w45_c15 + y_w45_c15 >= 0.0815
  lat_lin_w45_c16: x_w45_c16 + y_w45_c16 >= 0.5991
  lat_lin_w45_c17: x_w45_c17 + y_w45_c17 >= 0.4541
  lat_lin_w45_c18: x_w45_c18 + y_w45_c18 >= 0.2191
  lat_lin_w45_c19: x_w45_c19 + y_w45_c19 >= 0.4926
  lat_lin_w45_c20: x_w45_c20 + y_w45_c20 >= 0.0022
  lat_lin_w45_c21: x_w45_c21 + y_w45_c21 >= 0.2344
  lat_lin_w45_c22: x_w45_c22 + y_w45_c22 >= 0.3019
  lat_lin_w45_c23: x_w45_c23 + y_w45_c23 >= 0.4494
  lat_lin_w45_c24: x_w45_c24 + y_w45_c24 >= 0.2944
  demand_w45: x_w45_c0 + x_w45_c1 + x_w45_c2 + x_w45_c3 + x_w45_c4 + x_w45_c5 + x_w45_c6 + x_w45_c7 + x_w45_c8 + x_w45_c9 + x_w45_c10 + x_w45_c11 + x_w45_c12 + x_w45_c13 + x_w45_c14 + x_w45_c15 + x_w45_c16 + x_w45_c17 + x_w45_c18 + x_w45_c19 + x_w45_c20 + x_w45_c21 + x_w45_c22 + x_w45_c23 + x_w45_c24 = 8
  lat_lin_w46_c0: x_w46_c0 + y_w46_c0 >= 0.4199
  lat_lin_w46_c1: x_w46_c1 + y_w46_c1 >= 0.5772
  lat_lin_w46_c2: x_w46_c2 + y_w46_c2 >= 0.5480
  lat_lin_w46_c3: x_w46_c3 + y_w46_c3 >= 0.2383
  lat_lin_w46_c4: x_w46_c4 + y_w46_c4 >= 0.3898
  lat_lin_w46_c5: x_w46_c5 + y_w46_c5 >= 0.5127
  lat_lin_w46_c6: x_w46_c6 + y_w46_c6 >= 0.2205
  lat_lin_w46_c7: x_w46_c7 + y_w46_c7 >= 0.0743
  lat_lin_w46_c8: x_w46_c8 + y_w46_c8 >= 0.5267
  lat_lin_w46_c9: x_w46_c9 + y_w46_c9 >= 0.3814
  lat_lin_w46_c10: x_w46_c10 + y_w46_c10 >= 0.3635
  lat_lin_w46_c11: x_w46_c11 + y_w46_c11 >= 0.2609
  lat_lin_w46_c12: x_w46_c12 + y_w46_c12 >= 0.1655
  lat_lin_w46_c13: x_w46_c13 + y_w46_c13 >= 0.3213
  lat_lin_w46_c14: x_w46_c14 + y_w46_c14 >= 0.3613
  lat_lin_w46_c15: x_w46_c15 + y_w46_c15 >= 0.5112
  lat_lin_w46_c16: x_w46_c16 + y_w46_c16 >= 0.2129
  lat_lin_w46_c17: x_w46_c17 + y_w46_c17 >= 0.4075
  lat_lin_w46_c18: x_w46_c18 + y_w46_c18 >= 0.4111
  lat_lin_w46_c19: x_w46_c19 + y_w46_c19 >= 0.3323
  lat_lin_w46_c20: x_w46_c20 + y_w46_c20 >= 0.4617
  lat_lin_w46_c21: x_w46_c21 + y_w46_c21 >= 0.2736
  lat_lin_w46_c22: x_w46_c22 + y_w46_c22 >= 0.5229
  lat_lin_w46_c23: x_w46_c23 + y_w46_c23 >= 0.2123
  lat_lin_w46_c24: x_w46_c24 + y_w46_c24 >= 0.2933
  demand_w46: x_w46_c0 + x_w46_c1 + x_w46_c2 + x_w46_c3 + x_w46_c4 + x_w46_c5 + x_w46_c6 + x_w46_c7 + x_w46_c8 + x_w46_c9 + x_w46_c10 + x_w46_c11 + x_w46_c12 + x_w46_c13 + x_w46_c14 + x_w46_c15 + x_w46_c16 + x_w46_c17 + x_w46_c18 + x_w46_c19 + x_w46_c20 + x_w46_c21 + x_w46_c22 + x_w46_c23 + x_w46_c24 = 9
  lat_lin_w47_c0: x_w47_c0 + y_w47_c0 >= 0.4230
  lat_lin_w47_c1: x_w47_c1 + y_w47_c1 >= 0.0196
  lat_lin_w47_c2: x_w47_c2 + y_w47_c2 >= 0.3864
  lat_lin_w47_c3: x_w47_c3 + y_w47_c3 >= 0.0540
  lat_lin_w47_c4: x_w47_c4 + y_w47_c4 >= 0.5315
  lat_lin_w47_c5: x_w47_c5 + y_w47_c5 >= 0.2562
  lat_lin_w47_c6: x_w47_c6 + y_w47_c6 >= 0.4448
  lat_lin_w47_c7: x_w47_c7 + y_w47_c7 >= 0.0122
  lat_lin_w47_c8: x_w47_c8 + y_w47_c8 >= 0.2142
  lat_lin_w47_c9: x_w47_c9 + y_w47_c9 >= 0.0371
  lat_lin_w47_c10: x_w47_c10 + y_w47_c10 >= 0.5473
  lat_lin_w47_c11: x_w47_c11 + y_w47_c11 >= 0.5605
  lat_lin_w47_c12: x_w47_c12 + y_w47_c12 >= 0.2755
  lat_lin_w47_c13: x_w47_c13 + y_w47_c13 >= 0.5698
  lat_lin_w47_c14: x_w47_c14 + y_w47_c14 >= 0.5455
  lat_lin_w47_c15: x_w47_c15 + y_w47_c15 >= 0.3885
  lat_lin_w47_c16: x_w47_c16 + y_w47_c16 >= 0.1063
  lat_lin_w47_c17: x_w47_c17 + y_w47_c17 >= 0.5187
  lat_lin_w47_c18: x_w47_c18 + y_w47_c18 >= 0.1295
  lat_lin_w47_c19: x_w47_c19 + y_w47_c19 >= 0.4804
  lat_lin_w47_c20: x_w47_c20 + y_w47_c20 >= 0.2901
  lat_lin_w47_c21: x_w47_c21 + y_w47_c21 >= 0.1085
  lat_lin_w47_c22: x_w47_c22 + y_w47_c22 >= 0.4557
  lat_lin_w47_c23: x_w47_c23 + y_w47_c23 >= 0.3247
  lat_lin_w47_c24: x_w47_c24 + y_w47_c24 >= 0.3201
  demand_w47: x_w47_c0 + x_w47_c1 + x_w47_c2 + x_w47_c3 + x_w47_c4 + x_w47_c5 + x_w47_c6 + x_w47_c7 + x_w47_c8 + x_w47_c9 + x_w47_c10 + x_w47_c11 + x_w47_c12 + x_w47_c13 + x_w47_c14 + x_w47_c15 + x_w47_c16 + x_w47_c17 + x_w47_c18 + x_w47_c19 + x_w47_c20 + x_w47_c21 + x_w47_c22 + x_w47_c23 + x_w47_c24 = 8
  lat_lin_w48_c0: x_w48_c0 + y_w48_c0 >= 0.7888
  lat_lin_w48_c1: x_w48_c1 + y_w48_c1 >= 0.8268
  lat_lin_w48_c2: x_w48_c2 + y_w48_c2 >= 0.4022
  lat_lin_w48_c3: x_w48_c3 + y_w48_c3 >= 0.7350
  lat_lin_w48_c4: x_w48_c4 + y_w48_c4 >= 0.0383
  lat_lin_w48_c5: x_w48_c5 + y_w48_c5 >= 0.1767
  lat_lin_w48_c6: x_w48_c6 + y_w48_c6 >= 0.4583
  lat_lin_w48_c7: x_w48_c7 + y_w48_c7 >= 1.0489
  lat_lin_w48_c8: x_w48_c8 + y_w48_c8 >= 1.2185
  lat_lin_w48_c9: x_w48_c9 + y_w48_c9 >= 1.1408
  lat_lin_w48_c10: x_w48_c10 + y_w48_c10 >= 1.1569
  lat_lin_w48_c11: x_w48_c11 + y_w48_c11 >= 0.3739
  lat_lin_w48_c12: x_w48_c12 + y_w48_c12 >= 0.0537
  lat_lin_w48_c13: x_w48_c13 + y_w48_c13 >= 0.1010
  lat_lin_w48_c14: x_w48_c14 + y_w48_c14 >= 0.1434
  lat_lin_w48_c15: x_w48_c15 + y_w48_c15 >= 1.1384
  lat_lin_w48_c16: x_w48_c16 + y_w48_c16 >= 0.2980
  lat_lin_w48_c17: x_w48_c17 + y_w48_c17 >= 0.3915
  lat_lin_w48_c18: x_w48_c18 + y_w48_c18 >= 0.6932
  lat_lin_w48_c19: x_w48_c19 + y_w48_c19 >= 0.1359
  lat_lin_w48_c20: x_w48_c20 + y_w48_c20 >= 1.1727
  lat_lin_w48_c21: x_w48_c21 + y_w48_c21 >= 0.5902
  lat_lin_w48_c22: x_w48_c22 + y_w48_c22 >= 0.1160
  lat_lin_w48_c23: x_w48_c23 + y_w48_c23 >= 1.2597
  lat_lin_w48_c24: x_w48_c24 + y_w48_c24 >= 0.5412
  demand_w48: x_w48_c0 + x_w48_c1 + x_w48_c2 + x_w48_c3 + x_w48_c4 + x_w48_c5 + x_w48_c6 + x_w48_c7 + x_w48_c8 + x_w48_c9 + x_w48_c10 + x_w48_c11 + x_w48_c12 + x_w48_c13 + x_w48_c14 + x_w48_c15 + x_w48_c16 + x_w48_c17 + x_w48_c18 + x_w48_c19 + x_w48_c20 + x_w48_c21 + x_w48_c22 + x_w48_c23 + x_w48_c24 = 15
  lat_lin_w49_c0: x_w49_c0 + y_w49_c0 >= 0.1586
  lat_lin_w49_c1: x_w49_c1 + y_w49_c1 >= 0.0059
  lat_lin_w49_c2: x_w49_c2 + y_w49_c2 >= 0.3874
  lat_lin_w49_c3: x_w49_c3 + y_w49_c3 >= 0.2556
  lat_lin_w49_c4: x_w49_c4 + y_w49_c4 >= 0.1246
  lat_lin_w49_c5: x_w49_c5 + y_w49_c5 >= 0.0476
  lat_lin_w49_c6: x_w49_c6 + y_w49_c6 >= 0.0680
  lat_lin_w49_c7: x_w49_c7 + y_w49_c7 >= 0.0860
  lat_lin_w49_c8: x_w49_c8 + y_w49_c8 >= 0.2393
  lat_lin_w49_c9: x_w49_c9 + y_w49_c9 >= 0.0179
  lat_lin_w49_c10: x_w49_c10 + y_w49_c10 >= 0.1554
  lat_lin_w49_c11: x_w49_c11 + y_w49_c11 >= 0.2271
  lat_lin_w49_c12: x_w49_c12 + y_w49_c12 >= 0.4380
  lat_lin_w49_c13: x_w49_c13 + y_w49_c13 >= 0.1766
  lat_lin_w49_c14: x_w49_c14 + y_w49_c14 >= 0.0381
  lat_lin_w49_c15: x_w49_c15 + y_w49_c15 >= 0.3974
  lat_lin_w49_c16: x_w49_c16 + y_w49_c16 >= 0.1537
  lat_lin_w49_c17: x_w49_c17 + y_w49_c17 >= 0.3828
  lat_lin_w49_c18: x_w49_c18 + y_w49_c18 >= 0.2656
  lat_lin_w49_c19: x_w49_c19 + y_w49_c19 >= 0.2866
  lat_lin_w49_c20: x_w49_c20 + y_w49_c20 >= 0.1941
  lat_lin_w49_c21: x_w49_c21 + y_w49_c21 >= 0.1209
  lat_lin_w49_c22: x_w49_c22 + y_w49_c22 >= 0.3440
  lat_lin_w49_c23: x_w49_c23 + y_w49_c23 >= 0.3919
  lat_lin_w49_c24: x_w49_c24 + y_w49_c24 >= 0.0369
  demand_w49: x_w49_c0 + x_w49_c1 + x_w49_c2 + x_w49_c3 + x_w49_c4 + x_w49_c5 + x_w49_c6 + x_w49_c7 + x_w49_c8 + x_w49_c9 + x_w49_c10 + x_w49_c11 + x_w49_c12 + x_w49_c13 + x_w49_c14 + x_w49_c15 + x_w49_c16 + x_w49_c17 + x_w49_c18 + x_w49_c19 + x_w49_c20 + x_w49_c21 + x_w49_c22 + x_w49_c23 + x_w49_c24 = 5
  lat_lin_w50_c0: x_w50_c0 + y_w50_c0 >= 0.0795
  lat_lin_w50_c1: x_w50_c1 + y_w50_c1 >= 0.1763
  lat_lin_w50_c2: x_w50_c2 + y_w50_c2 >= 0.0929
  lat_lin_w50_c3: x_w50_c3 + y_w50_c3 >= 0.0179
  lat_lin_w50_c4: x_w50_c4 + y_w50_c4 >= 0.0644
  lat_lin_w50_c5: x_w50_c5 + y_w50_c5 >= 0.2153
  lat_lin_w50_c6: x_w50_c6 + y_w50_c6 >= 0.0147
  lat_lin_w50_c7: x_w50_c7 + y_w50_c7 >= 0.2105
  lat_lin_w50_c8: x_w50_c8 + y_w50_c8 >= 0.0557
  lat_lin_w50_c9: x_w50_c9 + y_w50_c9 >= 0.1677
  lat_lin_w50_c10: x_w50_c10 + y_w50_c10 >= 0.0323
  lat_lin_w50_c11: x_w50_c11 + y_w50_c11 >= 0.0085
  lat_lin_w50_c12: x_w50_c12 + y_w50_c12 >= 0.1137
  lat_lin_w50_c13: x_w50_c13 + y_w50_c13 >= 0.2188
  lat_lin_w50_c14: x_w50_c14 + y_w50_c14 >= 0.1565
  lat_lin_w50_c15: x_w50_c15 + y_w50_c15 >= 0.1765
  lat_lin_w50_c16: x_w50_c16 + y_w50_c16 >= 0.0109
  lat_lin_w50_c17: x_w50_c17 + y_w50_c17 >= 0.0446
  lat_lin_w50_c18: x_w50_c18 + y_w50_c18 >= 0.2446
  lat_lin_w50_c19: x_w50_c19 + y_w50_c19 >= 0.0662
  lat_lin_w50_c20: x_w50_c20 + y_w50_c20 >= 0.0516
  lat_lin_w50_c21: x_w50_c21 + y_w50_c21 >= 0.2310
  lat_lin_w50_c22: x_w50_c22 + y_w50_c22 >= 0.2262
  lat_lin_w50_c23: x_w50_c23 + y_w50_c23 >= 0.1678
  lat_lin_w50_c24: x_w50_c24 + y_w50_c24 >= 0.1559
  demand_w50: x_w50_c0 + x_w50_c1 + x_w50_c2 + x_w50_c3 + x_w50_c4 + x_w50_c5 + x_w50_c6 + x_w50_c7 + x_w50_c8 + x_w50_c9 + x_w50_c10 + x_w50_c11 + x_w50_c12 + x_w50_c13 + x_w50_c14 + x_w50_c15 + x_w50_c16 + x_w50_c17 + x_w50_c18 + x_w50_c19 + x_w50_c20 + x_w50_c21 + x_w50_c22 + x_w50_c23 + x_w50_c24 = 3
  lat_lin_w51_c0: x_w51_c0 + y_w51_c0 >= 0.4151
  lat_lin_w51_c1: x_w51_c1 + y_w51_c1 >= 0.3891
  lat_lin_w51_c2: x_w51_c2 + y_w51_c2 >= 0.0512
  lat_lin_w51_c3: x_w51_c3 + y_w51_c3 >= 0.2938
  lat_lin_w51_c4: x_w51_c4 + y_w51_c4 >= 0.2775
  lat_lin_w51_c5: x_w51_c5 + y_w51_c5 >= 0.1925
  lat_lin_w51_c6: x_w51_c6 + y_w51_c6 >= 0.1154
  lat_lin_w51_c7: x_w51_c7 + y_w51_c7 >= 0.3576
  lat_lin_w51_c8: x_w51_c8 + y_w51_c8 >= 0.3830
  lat_lin_w51_c9: x_w51_c9 + y_w51_c9 >= 0.1571
  lat_lin_w51_c10: x_w51_c10 + y_w51_c10 >= 0.3249
  lat_lin_w51_c11: x_w51_c11 + y_w51_c11 >= 0.2182
  lat_lin_w51_c12: x_w51_c12 + y_w51_c12 >= 0.2879
  lat_lin_w51_c13: x_w51_c13 + y_w51_c13 >= 0.1102
  lat_lin_w51_c14: x_w51_c14 + y_w51_c14 >= 0.3110
  lat_lin_w51_c15: x_w51_c15 + y_w51_c15 >= 0.0226
  lat_lin_w51_c16: x_w51_c16 + y_w51_c16 >= 0.0349
  lat_lin_w51_c17: x_w51_c17 + y_w51_c17 >= 0.0764
  lat_lin_w51_c18: x_w51_c18 + y_w51_c18 >= 0.0391
  lat_lin_w51_c19: x_w51_c19 + y_w51_c19 >= 0.0195
  lat_lin_w51_c20: x_w51_c20 + y_w51_c20 >= 0.0659
  lat_lin_w51_c21: x_w51_c21 + y_w51_c21 >= 0.0543
  lat_lin_w51_c22: x_w51_c22 + y_w51_c22 >= 0.3035
  lat_lin_w51_c23: x_w51_c23 + y_w51_c23 >= 0.1358
  lat_lin_w51_c24: x_w51_c24 + y_w51_c24 >= 0.3634
  demand_w51: x_w51_c0 + x_w51_c1 + x_w51_c2 + x_w51_c3 + x_w51_c4 + x_w51_c5 + x_w51_c6 + x_w51_c7 + x_w51_c8 + x_w51_c9 + x_w51_c10 + x_w51_c11 + x_w51_c12 + x_w51_c13 + x_w51_c14 + x_w51_c15 + x_w51_c16 + x_w51_c17 + x_w51_c18 + x_w51_c19 + x_w51_c20 + x_w51_c21 + x_w51_c22 + x_w51_c23 + x_w51_c24 = 5
  lat_lin_w52_c0: x_w52_c0 + y_w52_c0 >= 1.0367
  lat_lin_w52_c1: x_w52_c1 + y_w52_c1 >= 0.1260
  lat_lin_w52_c2: x_w52_c2 + y_w52_c2 >= 0.1535
  lat_lin_w52_c3: x_w52_c3 + y_w52_c3 >= 1.1991
  lat_lin_w52_c4: x_w52_c4 + y_w52_c4 >= 1.0637
  lat_lin_w52_c5: x_w52_c5 + y_w52_c5 >= 0.2524
  lat_lin_w52_c6: x_w52_c6 + y_w52_c6 >= 0.5872
  lat_lin_w52_c7: x_w52_c7 + y_w52_c7 >= 0.2059
  lat_lin_w52_c8: x_w52_c8 + y_w52_c8 >= 0.3437
  lat_lin_w52_c9: x_w52_c9 + y_w52_c9 >= 0.0744
  lat_lin_w52_c10: x_w52_c10 + y_w52_c10 >= 0.5072
  lat_lin_w52_c11: x_w52_c11 + y_w52_c11 >= 0.1007
  lat_lin_w52_c12: x_w52_c12 + y_w52_c12 >= 0.3706
  lat_lin_w52_c13: x_w52_c13 + y_w52_c13 >= 0.4785
  lat_lin_w52_c14: x_w52_c14 + y_w52_c14 >= 0.4622
  lat_lin_w52_c15: x_w52_c15 + y_w52_c15 >= 0.4330
  lat_lin_w52_c16: x_w52_c16 + y_w52_c16 >= 1.0747
  lat_lin_w52_c17: x_w52_c17 + y_w52_c17 >= 0.9681
  lat_lin_w52_c18: x_w52_c18 + y_w52_c18 >= 0.5342
  lat_lin_w52_c19: x_w52_c19 + y_w52_c19 >= 0.1279
  lat_lin_w52_c20: x_w52_c20 + y_w52_c20 >= 0.8382
  lat_lin_w52_c21: x_w52_c21 + y_w52_c21 >= 0.9455
  lat_lin_w52_c22: x_w52_c22 + y_w52_c22 >= 0.5133
  lat_lin_w52_c23: x_w52_c23 + y_w52_c23 >= 0.9706
  lat_lin_w52_c24: x_w52_c24 + y_w52_c24 >= 0.6327
  demand_w52: x_w52_c0 + x_w52_c1 + x_w52_c2 + x_w52_c3 + x_w52_c4 + x_w52_c5 + x_w52_c6 + x_w52_c7 + x_w52_c8 + x_w52_c9 + x_w52_c10 + x_w52_c11 + x_w52_c12 + x_w52_c13 + x_w52_c14 + x_w52_c15 + x_w52_c16 + x_w52_c17 + x_w52_c18 + x_w52_c19 + x_w52_c20 + x_w52_c21 + x_w52_c22 + x_w52_c23 + x_w52_c24 = 14
  lat_lin_w53_c0: x_w53_c0 + y_w53_c0 >= 0.1940
  lat_lin_w53_c1: x_w53_c1 + y_w53_c1 >= 0.6440
  lat_lin_w53_c2: x_w53_c2 + y_w53_c2 >= 0.5480
  lat_lin_w53_c3: x_w53_c3 + y_w53_c3 >= 0.7801
  lat_lin_w53_c4: x_w53_c4 + y_w53_c4 >= 0.0786
  lat_lin_w53_c5: x_w53_c5 + y_w53_c5 >= 0.7702
  lat_lin_w53_c6: x_w53_c6 + y_w53_c6 >= 0.7854
  lat_lin_w53_c7: x_w53_c7 + y_w53_c7 >= 0.6997
  lat_lin_w53_c8: x_w53_c8 + y_w53_c8 >= 0.0452
  lat_lin_w53_c9: x_w53_c9 + y_w53_c9 >= 0.4531
  lat_lin_w53_c10: x_w53_c10 + y_w53_c10 >= 0.0110
  lat_lin_w53_c11: x_w53_c11 + y_w53_c11 >= 0.7477
  lat_lin_w53_c12: x_w53_c12 + y_w53_c12 >= 0.5108
  lat_lin_w53_c13: x_w53_c13 + y_w53_c13 >= 0.4875
  lat_lin_w53_c14: x_w53_c14 + y_w53_c14 >= 0.1763
  lat_lin_w53_c15: x_w53_c15 + y_w53_c15 >= 0.0884
  lat_lin_w53_c16: x_w53_c16 + y_w53_c16 >= 0.1852
  lat_lin_w53_c17: x_w53_c17 + y_w53_c17 >= 0.4743
  lat_lin_w53_c18: x_w53_c18 + y_w53_c18 >= 0.0130
  lat_lin_w53_c19: x_w53_c19 + y_w53_c19 >= 0.2330
  lat_lin_w53_c20: x_w53_c20 + y_w53_c20 >= 0.7097
  lat_lin_w53_c21: x_w53_c21 + y_w53_c21 >= 0.1943
  lat_lin_w53_c22: x_w53_c22 + y_w53_c22 >= 0.6762
  lat_lin_w53_c23: x_w53_c23 + y_w53_c23 >= 0.1834
  lat_lin_w53_c24: x_w53_c24 + y_w53_c24 >= 0.3110
  demand_w53: x_w53_c0 + x_w53_c1 + x_w53_c2 + x_w53_c3 + x_w53_c4 + x_w53_c5 + x_w53_c6 + x_w53_c7 + x_w53_c8 + x_w53_c9 + x_w53_c10 + x_w53_c11 + x_w53_c12 + x_w53_c13 + x_w53_c14 + x_w53_c15 + x_w53_c16 + x_w53_c17 + x_w53_c18 + x_w53_c19 + x_w53_c20 + x_w53_c21 + x_w53_c22 + x_w53_c23 + x_w53_c24 = 10
  lat_lin_w54_c0: x_w54_c0 + y_w54_c0 >= 0.3891
  lat_lin_w54_c1: x_w54_c1 + y_w54_c1 >= 0.2091
  lat_lin_w54_c2: x_w54_c2 + y_w54_c2 >= 0.1884
  lat_lin_w54_c3: x_w54_c3 + y_w54_c3 >= 0.2662
  lat_lin_w54_c4: x_w54_c4 + y_w54_c4 >= 0.7346
  lat_lin_w54_c5: x_w54_c5 + y_w54_c5 >= 0.2255
  lat_lin_w54_c6: x_w54_c6 + y_w54_c6 >= 0.3426
  lat_lin_w54_c7: x_w54_c7 + y_w54_c7 >= 0.4558
  lat_lin_w54_c8: x_w54_c8 + y_w54_c8 >= 0.4065
  lat_lin_w54_c9: x_w54_c9 + y_w54_c9 >= 0.2132
  lat_lin_w54_c10: x_w54_c10 + y_w54_c10 >= 0.4055
  lat_lin_w54_c11: x_w54_c11 + y_w54_c11 >= 0.1135
  lat_lin_w54_c12: x_w54_c12 + y_w54_c12 >= 0.5591
  lat_lin_w54_c13: x_w54_c13 + y_w54_c13 >= 0.7883
  lat_lin_w54_c14: x_w54_c14 + y_w54_c14 >= 0.4401
  lat_lin_w54_c15: x_w54_c15 + y_w54_c15 >= 0.5399
  lat_lin_w54_c16: x_w54_c16 + y_w54_c16 >= 0.5337
  lat_lin_w54_c17: x_w54_c17 + y_w54_c17 >= 0.7080
  lat_lin_w54_c18: x_w54_c18 + y_w54_c18 >= 0.2798
  lat_lin_w54_c19: x_w54_c19 + y_w54_c19 >= 0.4551
  lat_lin_w54_c20: x_w54_c20 + y_w54_c20 >= 0.3617
  lat_lin_w54_c21: x_w54_c21 + y_w54_c21 >= 0.1307
  lat_lin_w54_c22: x_w54_c22 + y_w54_c22 >= 0.0248
  lat_lin_w54_c23: x_w54_c23 + y_w54_c23 >= 0.5967
  lat_lin_w54_c24: x_w54_c24 + y_w54_c24 >= 0.6320
  demand_w54: x_w54_c0 + x_w54_c1 + x_w54_c2 + x_w54_c3 + x_w54_c4 + x_w54_c5 + x_w54_c6 + x_w54_c7 + x_w54_c8 + x_w54_c9 + x_w54_c10 + x_w54_c11 + x_w54_c12 + x_w54_c13 + x_w54_c14 + x_w54_c15 + x_w54_c16 + x_w54_c17 + x_w54_c18 + x_w54_c19 + x_w54_c20 + x_w54_c21 + x_w54_c22 + x_w54_c23 + x_w54_c24 = 10
  lat_lin_w55_c0: x_w55_c0 + y_w55_c0 >= 0.4860
  lat_lin_w55_c1: x_w55_c1 + y_w55_c1 >= 0.4843
  lat_lin_w55_c2: x_w55_c2 + y_w55_c2 >= 0.4256
  lat_lin_w55_c3: x_w55_c3 + y_w55_c3 >= 0.1092
  lat_lin_w55_c4: x_w55_c4 + y_w55_c4 >= 0.4285
  lat_lin_w55_c5: x_w55_c5 + y_w55_c5 >= 0.7055
  lat_lin_w55_c6: x_w55_c6 + y_w55_c6 >= 0.4347
  lat_lin_w55_c7: x_w55_c7 + y_w55_c7 >= 0.0365
  lat_lin_w55_c8: x_w55_c8 + y_w55_c8 >= 0.5130
  lat_lin_w55_c9: x_w55_c9 + y_w55_c9 >= 0.1170
  lat_lin_w55_c10: x_w55_c10 + y_w55_c10 >= 0.7145
  lat_lin_w55_c11: x_w55_c11 + y_w55_c11 >= 0.3991
  lat_lin_w55_c12: x_w55_c12 + y_w55_c12 >= 0.2156
  lat_lin_w55_c13: x_w55_c13 + y_w55_c13 >= 0.4625
  lat_lin_w55_c14: x_w55_c14 + y_w55_c14 >= 0.5925
  lat_lin_w55_c15: x_w55_c15 + y_w55_c15 >= 0.2469
  lat_lin_w55_c16: x_w55_c16 + y_w55_c16 >= 0.0911
  lat_lin_w55_c17: x_w55_c17 + y_w55_c17 >= 0.3306
  lat_lin_w55_c18: x_w55_c18 + y_w55_c18 >= 0.0947
  lat_lin_w55_c19: x_w55_c19 + y_w55_c19 >= 0.0683
  lat_lin_w55_c20: x_w55_c20 + y_w55_c20 >= 0.3250
  lat_lin_w55_c21: x_w55_c21 + y_w55_c21 >= 0.0370
  lat_lin_w55_c22: x_w55_c22 + y_w55_c22 >= 0.4108
  lat_lin_w55_c23: x_w55_c23 + y_w55_c23 >= 0.2497
  lat_lin_w55_c24: x_w55_c24 + y_w55_c24 >= 0.0212
  demand_w55: x_w55_c0 + x_w55_c1 + x_w55_c2 + x_w55_c3 + x_w55_c4 + x_w55_c5 + x_w55_c6 + x_w55_c7 + x_w55_c8 + x_w55_c9 + x_w55_c10 + x_w55_c11 + x_w55_c12 + x_w55_c13 + x_w55_c14 + x_w55_c15 + x_w55_c16 + x_w55_c17 + x_w55_c18 + x_w55_c19 + x_w55_c20 + x_w55_c21 + x_w55_c22 + x_w55_c23 + x_w55_c24 = 8
  lat_lin_w56_c0: x_w56_c0 + y_w56_c0 >= 0.2294
  lat_lin_w56_c1: x_w56_c1 + y_w56_c1 >= 0.2478
  lat_lin_w56_c2: x_w56_c2 + y_w56_c2 >= 0.3406
  lat_lin_w56_c3: x_w56_c3 + y_w56_c3 >= 0.0226
  lat_lin_w56_c4: x_w56_c4 + y_w56_c4 >= 0.1407
  lat_lin_w56_c5: x_w56_c5 + y_w56_c5 >= 0.2560
  lat_lin_w56_c6: x_w56_c6 + y_w56_c6 >= 0.2306
  lat_lin_w56_c7: x_w56_c7 + y_w56_c7 >= 0.0505
  lat_lin_w56_c8: x_w56_c8 + y_w56_c8 >= 0.3373
  lat_lin_w56_c9: x_w56_c9 + y_w56_c9 >= 0.0130
  lat_lin_w56_c10: x_w56_c10 + y_w56_c10 >= 0.2764
  lat_lin_w56_c11: x_w56_c11 + y_w56_c11 >= 0.3703
  lat_lin_w56_c12: x_w56_c12 + y_w56_c12 >= 0.1571
  lat_lin_w56_c13: x_w56_c13 + y_w56_c13 >= 0.3002
  lat_lin_w56_c14: x_w56_c14 + y_w56_c14 >= 0.2231
  lat_lin_w56_c15: x_w56_c15 + y_w56_c15 >= 0.1787
  lat_lin_w56_c16: x_w56_c16 + y_w56_c16 >= 0.1515
  lat_lin_w56_c17: x_w56_c17 + y_w56_c17 >= 0.3688
  lat_lin_w56_c18: x_w56_c18 + y_w56_c18 >= 0.1442
  lat_lin_w56_c19: x_w56_c19 + y_w56_c19 >= 0.0750
  lat_lin_w56_c20: x_w56_c20 + y_w56_c20 >= 0.1123
  lat_lin_w56_c21: x_w56_c21 + y_w56_c21 >= 0.2146
  lat_lin_w56_c22: x_w56_c22 + y_w56_c22 >= 0.2499
  lat_lin_w56_c23: x_w56_c23 + y_w56_c23 >= 0.1021
  lat_lin_w56_c24: x_w56_c24 + y_w56_c24 >= 0.2074
  demand_w56: x_w56_c0 + x_w56_c1 + x_w56_c2 + x_w56_c3 + x_w56_c4 + x_w56_c5 + x_w56_c6 + x_w56_c7 + x_w56_c8 + x_w56_c9 + x_w56_c10 + x_w56_c11 + x_w56_c12 + x_w56_c13 + x_w56_c14 + x_w56_c15 + x_w56_c16 + x_w56_c17 + x_w56_c18 + x_w56_c19 + x_w56_c20 + x_w56_c21 + x_w56_c22 + x_w56_c23 + x_w56_c24 = 5
  lat_lin_w57_c0: x_w57_c0 + y_w57_c0 >= 0.1043
  lat_lin_w57_c1: x_w57_c1 + y_w57_c1 >= 0.2457
  lat_lin_w57_c2: x_w57_c2 + y_w57_c2 >= 0.5174
  lat_lin_w57_c3: x_w57_c3 + y_w57_c3 >= 0.3519
  lat_lin_w57_c4: x_w57_c4 + y_w57_c4 >= 0.0285
  lat_lin_w57_c5: x_w57_c5 + y_w57_c5 >= 0.4317
  lat_lin_w57_c6: x_w57_c6 + y_w57_c6 >= 0.3186
  lat_lin_w57_c7: x_w57_c7 + y_w57_c7 >= 0.0081
  lat_lin_w57_c8: x_w57_c8 + y_w57_c8 >= 0.1380
  lat_lin_w57_c9: x_w57_c9 + y_w57_c9 >= 0.1259
  lat_lin_w57_c10: x_w57_c10 + y_w57_c10 >= 0.1731
  lat_lin_w57_c11: x_w57_c11 + y_w57_c11 >= 0.4435
  lat_lin_w57_c12: x_w57_c12 + y_w57_c12 >= 0.1648
  lat_lin_w57_c13: x_w57_c13 + y_w57_c13 >= 0.1147
  lat_lin_w57_c14: x_w57_c14 + y_w57_c14 >= 0.1010
  lat_lin_w57_c15: x_w57_c15 + y_w57_c15 >= 0.3446
  lat_lin_w57_c16: x_w57_c16 + y_w57_c16 >= 0.5018
  lat_lin_w57_c17: x_w57_c17 + y_w57_c17 >= 0.3275
  lat_lin_w57_c18: x_w57_c18 + y_w57_c18 >= 0.1642
  lat_lin_w57_c19: x_w57_c19 + y_w57_c19 >= 0.1549
  lat_lin_w57_c20: x_w57_c20 + y_w57_c20 >= 0.4750
  lat_lin_w57_c21: x_w57_c21 + y_w57_c21 >= 0.4371
  lat_lin_w57_c22: x_w57_c22 + y_w57_c22 >= 0.4721
  lat_lin_w57_c23: x_w57_c23 + y_w57_c23 >= 0.4148
  lat_lin_w57_c24: x_w57_c24 + y_w57_c24 >= 0.4409
  demand_w57: x_w57_c0 + x_w57_c1 + x_w57_c2 + x_w57_c3 + x_w57_c4 + x_w57_c5 + x_w57_c6 + x_w57_c7 + x_w57_c8 + x_w57_c9 + x_w57_c10 + x_w57_c11 + x_w57_c12 + x_w57_c13 + x_w57_c14 + x_w57_c15 + x_w57_c16 + x_w57_c17 + x_w57_c18 + x_w57_c19 + x_w57_c20 + x_w57_c21 + x_w57_c22 + x_w57_c23 + x_w57_c24 = 7
  lat_lin_w58_c0: x_w58_c0 + y_w58_c0 >= 0.1286
  lat_lin_w58_c1: x_w58_c1 + y_w58_c1 >= 0.5228
  lat_lin_w58_c2: x_w58_c2 + y_w58_c2 >= 0.1111
  lat_lin_w58_c3: x_w58_c3 + y_w58_c3 >= 0.5192
  lat_lin_w58_c4: x_w58_c4 + y_w58_c4 >= 0.5748
  lat_lin_w58_c5: x_w58_c5 + y_w58_c5 >= 0.7154
  lat_lin_w58_c6: x_w58_c6 + y_w58_c6 >= 0.3881
  lat_lin_w58_c7: x_w58_c7 + y_w58_c7 >= 0.6134
  lat_lin_w58_c8: x_w58_c8 + y_w58_c8 >= 0.0963
  lat_lin_w58_c9: x_w58_c9 + y_w58_c9 >= 0.4368
  lat_lin_w58_c10: x_w58_c10 + y_w58_c10 >= 1.0287
  lat_lin_w58_c11: x_w58_c11 + y_w58_c11 >= 0.8341
  lat_lin_w58_c12: x_w58_c12 + y_w58_c12 >= 0.0567
  lat_lin_w58_c13: x_w58_c13 + y_w58_c13 >= 0.7249
  lat_lin_w58_c14: x_w58_c14 + y_w58_c14 >= 0.8808
  lat_lin_w58_c15: x_w58_c15 + y_w58_c15 >= 0.9817
  lat_lin_w58_c16: x_w58_c16 + y_w58_c16 >= 0.0340
  lat_lin_w58_c17: x_w58_c17 + y_w58_c17 >= 1.0411
  lat_lin_w58_c18: x_w58_c18 + y_w58_c18 >= 0.8770
  lat_lin_w58_c19: x_w58_c19 + y_w58_c19 >= 0.3445
  lat_lin_w58_c20: x_w58_c20 + y_w58_c20 >= 0.2457
  lat_lin_w58_c21: x_w58_c21 + y_w58_c21 >= 0.0629
  lat_lin_w58_c22: x_w58_c22 + y_w58_c22 >= 0.9243
  lat_lin_w58_c23: x_w58_c23 + y_w58_c23 >= 0.7945
  lat_lin_w58_c24: x_w58_c24 + y_w58_c24 >= 1.0627
  demand_w58: x_w58_c0 + x_w58_c1 + x_w58_c2 + x_w58_c3 + x_w58_c4 + x_w58_c5 + x_w58_c6 + x_w58_c7 + x_w58_c8 + x_w58_c9 + x_w58_c10 + x_w58_c11 + x_w58_c12 + x_w58_c13 + x_w58_c14 + x_w58_c15 + x_w58_c16 + x_w58_c17 + x_w58_c18 + x_w58_c19 + x_w58_c20 + x_w58_c21 + x_w58_c22 + x_w58_c23 + x_w58_c24 = 14
  lat_lin_w59_c0: x_w59_c0 + y_w59_c0 >= 0.2369
  lat_lin_w59_c1: x_w59_c1 + y_w59_c1 >= 0.0154
  lat_lin_w59_c2: x_w59_c2 + y_w59_c2 >= 0.1215
  lat_lin_w59_c3: x_w59_c3 + y_w59_c3 >= 0.1441
  lat_lin_w59_c4: x_w59_c4 + y_w59_c4 >= 0.1087
  lat_lin_w59_c5: x_w59_c5 + y_w59_c5 >= 0.1191
  lat_lin_w59_c6: x_w59_c6 + y_w59_c6 >= 0.0985
  lat_lin_w59_c7: x_w59_c7 + y_w59_c7 >= 0.2262
  lat_lin_w59_c8: x_w59_c8 + y_w59_c8 >= 0.2058
  lat_lin_w59_c9: x_w59_c9 + y_w59_c9 >= 0.1537
  lat_lin_w59_c10: x_w59_c10 + y_w59_c10 >= 0.1693
  lat_lin_w59_c11: x_w59_c11 + y_w59_c11 >= 0.2574
  lat_lin_w59_c12: x_w59_c12 + y_w59_c12 >= 0.3209
  lat_lin_w59_c13: x_w59_c13 + y_w59_c13 >= 0.2431
  lat_lin_w59_c14: x_w59_c14 + y_w59_c14 >= 0.1379
  lat_lin_w59_c15: x_w59_c15 + y_w59_c15 >= 0.0747
  lat_lin_w59_c16: x_w59_c16 + y_w59_c16 >= 0.0435
  lat_lin_w59_c17: x_w59_c17 + y_w59_c17 >= 0.1082
  lat_lin_w59_c18: x_w59_c18 + y_w59_c18 >= 0.3074
  lat_lin_w59_c19: x_w59_c19 + y_w59_c19 >= 0.2605
  lat_lin_w59_c20: x_w59_c20 + y_w59_c20 >= 0.0516
  lat_lin_w59_c21: x_w59_c21 + y_w59_c21 >= 0.0052
  lat_lin_w59_c22: x_w59_c22 + y_w59_c22 >= 0.1945
  lat_lin_w59_c23: x_w59_c23 + y_w59_c23 >= 0.0733
  lat_lin_w59_c24: x_w59_c24 + y_w59_c24 >= 0.3226
  demand_w59: x_w59_c0 + x_w59_c1 + x_w59_c2 + x_w59_c3 + x_w59_c4 + x_w59_c5 + x_w59_c6 + x_w59_c7 + x_w59_c8 + x_w59_c9 + x_w59_c10 + x_w59_c11 + x_w59_c12 + x_w59_c13 + x_w59_c14 + x_w59_c15 + x_w59_c16 + x_w59_c17 + x_w59_c18 + x_w59_c19 + x_w59_c20 + x_w59_c21 + x_w59_c22 + x_w59_c23 + x_w59_c24 = 4
  lat_lin_w60_c0: x_w60_c0 + y_w60_c0 >= 0.3635
  lat_lin_w60_c1: x_w60_c1 + y_w60_c1 >= 0.1972
  lat_lin_w60_c2: x_w60_c2 + y_w60_c2 >= 0.4036
  lat_lin_w60_c3: x_w60_c3 + y_w60_c3 >= 0.2344
  lat_lin_w60_c4: x_w60_c4 + y_w60_c4 >= 0.1820
  lat_lin_w60_c5: x_w60_c5 + y_w60_c5 >= 0.3499
  lat_lin_w60_c6: x_w60_c6 + y_w60_c6 >= 0.4392
  lat_lin_w60_c7: x_w60_c7 + y_w60_c7 >= 0.2679
  lat_lin_w60_c8: x_w60_c8 + y_w60_c8 >= 0.2092
  lat_lin_w60_c9: x_w60_c9 + y_w60_c9 >= 0.2386
  lat_lin_w60_c10: x_w60_c10 + y_w60_c10 >= 0.1512
  lat_lin_w60_c11: x_w60_c11 + y_w60_c11 >= 0.3354
  lat_lin_w60_c12: x_w60_c12 + y_w60_c12 >= 0.1511
  lat_lin_w60_c13: x_w60_c13 + y_w60_c13 >= 0.3260
  lat_lin_w60_c14: x_w60_c14 + y_w60_c14 >= 0.4297
  lat_lin_w60_c15: x_w60_c15 + y_w60_c15 >= 0.4441
  lat_lin_w60_c16: x_w60_c16 + y_w60_c16 >= 0.2714
  lat_lin_w60_c17: x_w60_c17 + y_w60_c17 >= 0.0932
  lat_lin_w60_c18: x_w60_c18 + y_w60_c18 >= 0.1375
  lat_lin_w60_c19: x_w60_c19 + y_w60_c19 >= 0.2807
  lat_lin_w60_c20: x_w60_c20 + y_w60_c20 >= 0.3128
  lat_lin_w60_c21: x_w60_c21 + y_w60_c21 >= 0.1690
  lat_lin_w60_c22: x_w60_c22 + y_w60_c22 >= 0.3207
  lat_lin_w60_c23: x_w60_c23 + y_w60_c23 >= 0.3423
  lat_lin_w60_c24: x_w60_c24 + y_w60_c24 >= 0.3493
  demand_w60: x_w60_c0 + x_w60_c1 + x_w60_c2 + x_w60_c3 + x_w60_c4 + x_w60_c5 + x_w60_c6 + x_w60_c7 + x_w60_c8 + x_w60_c9 + x_w60_c10 + x_w60_c11 + x_w60_c12 + x_w60_c13 + x_w60_c14 + x_w60_c15 + x_w60_c16 + x_w60_c17 + x_w60_c18 + x_w60_c19 + x_w60_c20 + x_w60_c21 + x_w60_c22 + x_w60_c23 + x_w60_c24 = 7
  lat_lin_w61_c0: x_w61_c0 + y_w61_c0 >= 0.1528
  lat_lin_w61_c1: x_w61_c1 + y_w61_c1 >= 0.2673
  lat_lin_w61_c2: x_w61_c2 + y_w61_c2 >= 0.1279
  lat_lin_w61_c3: x_w61_c3 + y_w61_c3 >= 0.0046
  lat_lin_w61_c4: x_w61_c4 + y_w61_c4 >= 0.7096
  lat_lin_w61_c5: x_w61_c5 + y_w61_c5 >= 0.0824
  lat_lin_w61_c6: x_w61_c6 + y_w61_c6 >= 0.3445
  lat_lin_w61_c7: x_w61_c7 + y_w61_c7 >= 0.4818
  lat_lin_w61_c8: x_w61_c8 + y_w61_c8 >= 0.3214
  lat_lin_w61_c9: x_w61_c9 + y_w61_c9 >= 0.7541
  lat_lin_w61_c10: x_w61_c10 + y_w61_c10 >= 0.1752
  lat_lin_w61_c11: x_w61_c11 + y_w61_c11 >= 0.2978
  lat_lin_w61_c12: x_w61_c12 + y_w61_c12 >= 0.3408
  lat_lin_w61_c13: x_w61_c13 + y_w61_c13 >= 0.4084
  lat_lin_w61_c14: x_w61_c14 + y_w61_c14 >= 0.3375
  lat_lin_w61_c15: x_w61_c15 + y_w61_c15 >= 0.4549
  lat_lin_w61_c16: x_w61_c16 + y_w61_c16 >= 0.6505
  lat_lin_w61_c17: x_w61_c17 + y_w61_c17 >= 0.5118
  lat_lin_w61_c18: x_w61_c18 + y_w61_c18 >= 0.0006
  lat_lin_w61_c19: x_w61_c19 + y_w61_c19 >= 0.6052
  lat_lin_w61_c20: x_w61_c20 + y_w61_c20 >= 0.0081
  lat_lin_w61_c21: x_w61_c21 + y_w61_c21 >= 0.4897
  lat_lin_w61_c22: x_w61_c22 + y_w61_c22 >= 0.2760
  lat_lin_w61_c23: x_w61_c23 + y_w61_c23 >= 0.8022
  lat_lin_w61_c24: x_w61_c24 + y_w61_c24 >= 0.3949
  demand_w61: x_w61_c0 + x_w61_c1 + x_w61_c2 + x_w61_c3 + x_w61_c4 + x_w61_c5 + x_w61_c6 + x_w61_c7 + x_w61_c8 + x_w61_c9 + x_w61_c10 + x_w61_c11 + x_w61_c12 + x_w61_c13 + x_w61_c14 + x_w61_c15 + x_w61_c16 + x_w61_c17 + x_w61_c18 + x_w61_c19 + x_w61_c20 + x_w61_c21 + x_w61_c22 + x_w61_c23 + x_w61_c24 = 9
  lat_lin_w62_c0: x_w62_c0 + y_w62_c0 >= 0.3498
  lat_lin_w62_c1: x_w62_c1 + y_w62_c1 >= 0.1094
  lat_lin_w62_c2: x_w62_c2 + y_w62_c2 >= 0.2080
  lat_lin_w62_c3: x_w62_c3 + y_w62_c3 >= 0.3690
  lat_lin_w62_c4: x_w62_c4 + y_w62_c4 >= 0.4378
  lat_lin_w62_c5: x_w62_c5 + y_w62_c5 >= 0.2417
  lat_lin_w62_c6: x_w62_c6 + y_w62_c6 >= 0.4509
  lat_lin_w62_c7: x_w62_c7 + y_w62_c7 >= 0.4142
  lat_lin_w62_c8: x_w62_c8 + y_w62_c8 >= 0.1126
  lat_lin_w62_c9: x_w62_c9 + y_w62_c9 >= 0.4543
  lat_lin_w62_c10: x_w62_c10 + y_w62_c10 >= 0.4248
  lat_lin_w62_c11: x_w62_c11 + y_w62_c11 >= 0.0221
  lat_lin_w62_c12: x_w62_c12 + y_w62_c12 >= 0.1137
  lat_lin_w62_c13: x_w62_c13 + y_w62_c13 >= 0.3282
  lat_lin_w62_c14: x_w62_c14 + y_w62_c14 >= 0.3931
  lat_lin_w62_c15: x_w62_c15 + y_w62_c15 >= 0.1011
  lat_lin_w62_c16: x_w62_c16 + y_w62_c16 >= 0.2406
  lat_lin_w62_c17: x_w62_c17 + y_w62_c17 >= 0.3541
  lat_lin_w62_c18: x_w62_c18 + y_w62_c18 >= 0.0520
  lat_lin_w62_c19: x_w62_c19 + y_w62_c19 >= 0.2978
  lat_lin_w62_c20: x_w62_c20 + y_w62_c20 >= 0.2316
  lat_lin_w62_c21: x_w62_c21 + y_w62_c21 >= 0.3734
  lat_lin_w62_c22: x_w62_c22 + y_w62_c22 >= 0.1890
  lat_lin_w62_c23: x_w62_c23 + y_w62_c23 >= 0.2848
  lat_lin_w62_c24: x_w62_c24 + y_w62_c24 >= 0.4460
  demand_w62: x_w62_c0 + x_w62_c1 + x_w62_c2 + x_w62_c3 + x_w62_c4 + x_w62_c5 + x_w62_c6 + x_w62_c7 + x_w62_c8 + x_w62_c9 + x_w62_c10 + x_w62_c11 + x_w62_c12 + x_w62_c13 + x_w62_c14 + x_w62_c15 + x_w62_c16 + x_w62_c17 + x_w62_c18 + x_w62_c19 + x_w62_c20 + x_w62_c21 + x_w62_c22 + x_w62_c23 + x_w62_c24 = 7
  lat_lin_w63_c0: x_w63_c0 + y_w63_c0 >= 0.4291
  lat_lin_w63_c1: x_w63_c1 + y_w63_c1 >= 0.5390
  lat_lin_w63_c2: x_w63_c2 + y_w63_c2 >= 0.2286
  lat_lin_w63_c3: x_w63_c3 + y_w63_c3 >= 0.5087
  lat_lin_w63_c4: x_w63_c4 + y_w63_c4 >= 0.2368
  lat_lin_w63_c5: x_w63_c5 + y_w63_c5 >= 0.2427
  lat_lin_w63_c6: x_w63_c6 + y_w63_c6 >= 0.4589
  lat_lin_w63_c7: x_w63_c7 + y_w63_c7 >= 0.3368
  lat_lin_w63_c8: x_w63_c8 + y_w63_c8 >= 0.2325
  lat_lin_w63_c9: x_w63_c9 + y_w63_c9 >= 0.5055
  lat_lin_w63_c10: x_w63_c10 + y_w63_c10 >= 0.5129
  lat_lin_w63_c11: x_w63_c11 + y_w63_c11 >= 0.4700
  lat_lin_w63_c12: x_w63_c12 + y_w63_c12 >= 0.2561
  lat_lin_w63_c13: x_w63_c13 + y_w63_c13 >= 0.0714
  lat_lin_w63_c14: x_w63_c14 + y_w63_c14 >= 0.2160
  lat_lin_w63_c15: x_w63_c15 + y_w63_c15 >= 0.2293
  lat_lin_w63_c16: x_w63_c16 + y_w63_c16 >= 0.2692
  lat_lin_w63_c17: x_w63_c17 + y_w63_c17 >= 0.2819
  lat_lin_w63_c18: x_w63_c18 + y_w63_c18 >= 0.5254
  lat_lin_w63_c19: x_w63_c19 + y_w63_c19 >= 0.0654
  lat_lin_w63_c20: x_w63_c20 + y_w63_c20 >= 0.1879
  lat_lin_w63_c21: x_w63_c21 + y_w63_c21 >= 0.5447
  lat_lin_w63_c22: x_w63_c22 + y_w63_c22 >= 0.4892
  lat_lin_w63_c23: x_w63_c23 + y_w63_c23 >= 0.1050
  lat_lin_w63_c24: x_w63_c24 + y_w63_c24 >= 0.0571
  demand_w63: x_w63_c0 + x_w63_c1 + x_w63_c2 + x_w63_c3 + x_w63_c4 + x_w63_c5 + x_w63_c6 + x_w63_c7 + x_w63_c8 + x_w63_c9 + x_w63_c10 + x_w63_c11 + x_w63_c12 + x_w63_c13 + x_w63_c14 + x_w63_c15 + x_w63_c16 + x_w63_c17 + x_w63_c18 + x_w63_c19 + x_w63_c20 + x_w63_c21 + x_w63_c22 + x_w63_c23 + x_w63_c24 = 8
  lat_lin_w64_c0: x_w64_c0 + y_w64_c0 >= 0.1746
  lat_lin_w64_c1: x_w64_c1 + y_w64_c1 >= 1.1082
  lat_lin_w64_c2: x_w64_c2 + y_w64_c2 >= 0.2142
  lat_lin_w64_c3: x_w64_c3 + y_w64_c3 >= 0.0159
  lat_lin_w64_c4: x_w64_c4 + y_w64_c4 >= 1.2173
  lat_lin_w64_c5: x_w64_c5 + y_w64_c5 >= 1.1505
  lat_lin_w64_c6: x_w64_c6 + y_w64_c6 >= 0.7342
  lat_lin_w64_c7: x_w64_c7 + y_w64_c7 >= 0.5262
  lat_lin_w64_c8: x_w64_c8 + y_w64_c8 >= 1.2536
  lat_lin_w64_c9: x_w64_c9 + y_w64_c9 >= 0.8933
  lat_lin_w64_c10: x_w64_c10 + y_w64_c10 >= 1.0094
  lat_lin_w64_c11: x_w64_c11 + y_w64_c11 >= 0.2578
  lat_lin_w64_c12: x_w64_c12 + y_w64_c12 >= 0.3455
  lat_lin_w64_c13: x_w64_c13 + y_w64_c13 >= 0.6459
  lat_lin_w64_c14: x_w64_c14 + y_w64_c14 >= 0.1112
  lat_lin_w64_c15: x_w64_c15 + y_w64_c15 >= 1.2484
  lat_lin_w64_c16: x_w64_c16 + y_w64_c16 >= 0.0470
  lat_lin_w64_c17: x_w64_c17 + y_w64_c17 >= 0.0590
  lat_lin_w64_c18: x_w64_c18 + y_w64_c18 >= 1.1884
  lat_lin_w64_c19: x_w64_c19 + y_w64_c19 >= 1.1929
  lat_lin_w64_c20: x_w64_c20 + y_w64_c20 >= 0.2616
  lat_lin_w64_c21: x_w64_c21 + y_w64_c21 >= 0.0439
  lat_lin_w64_c22: x_w64_c22 + y_w64_c22 >= 0.5361
  lat_lin_w64_c23: x_w64_c23 + y_w64_c23 >= 0.4334
  lat_lin_w64_c24: x_w64_c24 + y_w64_c24 >= 0.3315
  demand_w64: x_w64_c0 + x_w64_c1 + x_w64_c2 + x_w64_c3 + x_w64_c4 + x_w64_c5 + x_w64_c6 + x_w64_c7 + x_w64_c8 + x_w64_c9 + x_w64_c10 + x_w64_c11 + x_w64_c12 + x_w64_c13 + x_w64_c14 + x_w64_c15 + x_w64_c16 + x_w64_c17 + x_w64_c18 + x_w64_c19 + x_w64_c20 + x_w64_c21 + x_w64_c22 + x_w64_c23 + x_w64_c24 = 15
  lat_lin_w65_c0: x_w65_c0 + y_w65_c0 >= 0.7761
  lat_lin_w65_c1: x_w65_c1 + y_w65_c1 >= 0.5863
  lat_lin_w65_c2: x_w65_c2 + y_w65_c2 >= 0.9554
  lat_lin_w65_c3: x_w65_c3 + y_w65_c3 >= 0.7485
  lat_lin_w65_c4: x_w65_c4 + y_w65_c4 >= 0.4052
  lat_lin_w65_c5: x_w65_c5 + y_w65_c5 >= 0.8817
  lat_lin_w65_c6: x_w65_c6 + y_w65_c6 >= 0.9962
  lat_lin_w65_c7: x_w65_c7 + y_w65_c7 >= 0.1113
  lat_lin_w65_c8: x_w65_c8 + y_w65_c8 >= 0.8073
  lat_lin_w65_c9: x_w65_c9 + y_w65_c9 >= 0.4954
  lat_lin_w65_c10: x_w65_c10 + y_w65_c10 >= 0.4588
  lat_lin_w65_c11: x_w65_c11 + y_w65_c11 >= 0.1212
  lat_lin_w65_c12: x_w65_c12 + y_w65_c12 >= 0.8762
  lat_lin_w65_c13: x_w65_c13 + y_w65_c13 >= 0.8788
  lat_lin_w65_c14: x_w65_c14 + y_w65_c14 >= 0.6297
  lat_lin_w65_c15: x_w65_c15 + y_w65_c15 >= 0.7600
  lat_lin_w65_c16: x_w65_c16 + y_w65_c16 >= 0.0205
  lat_lin_w65_c17: x_w65_c17 + y_w65_c17 >= 0.7604
  lat_lin_w65_c18: x_w65_c18 + y_w65_c18 >= 0.2812
  lat_lin_w65_c19: x_w65_c19 + y_w65_c19 >= 0.1058
  lat_lin_w65_c20: x_w65_c20 + y_w65_c20 >= 0.0169
  lat_lin_w65_c21: x_w65_c21 + y_w65_c21 >= 0.0189
  lat_lin_w65_c22: x_w65_c22 + y_w65_c22 >= 0.7739
  lat_lin_w65_c23: x_w65_c23 + y_w65_c23 >= 0.9480
  lat_lin_w65_c24: x_w65_c24 + y_w65_c24 >= 0.5866
  demand_w65: x_w65_c0 + x_w65_c1 + x_w65_c2 + x_w65_c3 + x_w65_c4 + x_w65_c5 + x_w65_c6 + x_w65_c7 + x_w65_c8 + x_w65_c9 + x_w65_c10 + x_w65_c11 + x_w65_c12 + x_w65_c13 + x_w65_c14 + x_w65_c15 + x_w65_c16 + x_w65_c17 + x_w65_c18 + x_w65_c19 + x_w65_c20 + x_w65_c21 + x_w65_c22 + x_w65_c23 + x_w65_c24 = 14
  lat_lin_w66_c0: x_w66_c0 + y_w66_c0 >= 0.6235
  lat_lin_w66_c1: x_w66_c1 + y_w66_c1 >= 0.0436
  lat_lin_w66_c2: x_w66_c2 + y_w66_c2 >= 0.5614
  lat_lin_w66_c3: x_w66_c3 + y_w66_c3 >= 0.3674
  lat_lin_w66_c4: x_w66_c4 + y_w66_c4 >= 0.7863
  lat_lin_w66_c5: x_w66_c5 + y_w66_c5 >= 0.8075
  lat_lin_w66_c6: x_w66_c6 + y_w66_c6 >= 0.6370
  lat_lin_w66_c7: x_w66_c7 + y_w66_c7 >= 1.5304
  lat_lin_w66_c8: x_w66_c8 + y_w66_c8 >= 0.1278
  lat_lin_w66_c9: x_w66_c9 + y_w66_c9 >= 0.1156
  lat_lin_w66_c10: x_w66_c10 + y_w66_c10 >= 1.2928
  lat_lin_w66_c11: x_w66_c11 + y_w66_c11 >= 0.7536
  lat_lin_w66_c12: x_w66_c12 + y_w66_c12 >= 0.7364
  lat_lin_w66_c13: x_w66_c13 + y_w66_c13 >= 0.1549
  lat_lin_w66_c14: x_w66_c14 + y_w66_c14 >= 0.4744
  lat_lin_w66_c15: x_w66_c15 + y_w66_c15 >= 0.3736
  lat_lin_w66_c16: x_w66_c16 + y_w66_c16 >= 1.2816
  lat_lin_w66_c17: x_w66_c17 + y_w66_c17 >= 0.7056
  lat_lin_w66_c18: x_w66_c18 + y_w66_c18 >= 0.0114
  lat_lin_w66_c19: x_w66_c19 + y_w66_c19 >= 0.0205
  lat_lin_w66_c20: x_w66_c20 + y_w66_c20 >= 0.0962
  lat_lin_w66_c21: x_w66_c21 + y_w66_c21 >= 1.4043
  lat_lin_w66_c22: x_w66_c22 + y_w66_c22 >= 0.9286
  lat_lin_w66_c23: x_w66_c23 + y_w66_c23 >= 0.1004
  lat_lin_w66_c24: x_w66_c24 + y_w66_c24 >= 1.0651
  demand_w66: x_w66_c0 + x_w66_c1 + x_w66_c2 + x_w66_c3 + x_w66_c4 + x_w66_c5 + x_w66_c6 + x_w66_c7 + x_w66_c8 + x_w66_c9 + x_w66_c10 + x_w66_c11 + x_w66_c12 + x_w66_c13 + x_w66_c14 + x_w66_c15 + x_w66_c16 + x_w66_c17 + x_w66_c18 + x_w66_c19 + x_w66_c20 + x_w66_c21 + x_w66_c22 + x_w66_c23 + x_w66_c24 = 15
  lat_lin_w67_c0: x_w67_c0 + y_w67_c0 >= 0.3268
  lat_lin_w67_c1: x_w67_c1 + y_w67_c1 >= 0.1657
  lat_lin_w67_c2: x_w67_c2 + y_w67_c2 >= 0.2082
  lat_lin_w67_c3: x_w67_c3 + y_w67_c3 >= 0.0625
  lat_lin_w67_c4: x_w67_c4 + y_w67_c4 >= 0.2832
  lat_lin_w67_c5: x_w67_c5 + y_w67_c5 >= 0.2149
  lat_lin_w67_c6: x_w67_c6 + y_w67_c6 >= 0.2838
  lat_lin_w67_c7: x_w67_c7 + y_w67_c7 >= 0.3304
  lat_lin_w67_c8: x_w67_c8 + y_w67_c8 >= 0.0424
  lat_lin_w67_c9: x_w67_c9 + y_w67_c9 >= 0.0728
  lat_lin_w67_c10: x_w67_c10 + y_w67_c10 >= 0.2750
  lat_lin_w67_c11: x_w67_c11 + y_w67_c11 >= 0.2665
  lat_lin_w67_c12: x_w67_c12 + y_w67_c12 >= 0.2881
  lat_lin_w67_c13: x_w67_c13 + y_w67_c13 >= 0.0922
  lat_lin_w67_c14: x_w67_c14 + y_w67_c14 >= 0.3027
  lat_lin_w67_c15: x_w67_c15 + y_w67_c15 >= 0.0205
  lat_lin_w67_c16: x_w67_c16 + y_w67_c16 >= 0.1069
  lat_lin_w67_c17: x_w67_c17 + y_w67_c17 >= 0.1357
  lat_lin_w67_c18: x_w67_c18 + y_w67_c18 >= 0.0095
  lat_lin_w67_c19: x_w67_c19 + y_w67_c19 >= 0.2387
  lat_lin_w67_c20: x_w67_c20 + y_w67_c20 >= 0.1958
  lat_lin_w67_c21: x_w67_c21 + y_w67_c21 >= 0.3019
  lat_lin_w67_c22: x_w67_c22 + y_w67_c22 >= 0.3218
  lat_lin_w67_c23: x_w67_c23 + y_w67_c23 >= 0.2096
  lat_lin_w67_c24: x_w67_c24 + y_w67_c24 >= 0.2443
  demand_w67: x_w67_c0 + x_w67_c1 + x_w67_c2 + x_w67_c3 + x_w67_c4 + x_w67_c5 + x_w67_c6 + x_w67_c7 + x_w67_c8 + x_w67_c9 + x_w67_c10 + x_w67_c11 + x_w67_c12 + x_w67_c13 + x_w67_c14 + x_w67_c15 + x_w67_c16 + x_w67_c17 + x_w67_c18 + x_w67_c19 + x_w67_c20 + x_w67_c21 + x_w67_c22 + x_w67_c23 + x_w67_c24 = 5
  lat_lin_w68_c0: x_w68_c0 + y_w68_c0 >= 0.1409
  lat_lin_w68_c1: x_w68_c1 + y_w68_c1 >= 0.1751
  lat_lin_w68_c2: x_w68_c2 + y_w68_c2 >= 0.2042
  lat_lin_w68_c3: x_w68_c3 + y_w68_c3 >= 0.2999
  lat_lin_w68_c4: x_w68_c4 + y_w68_c4 >= 0.2692
  lat_lin_w68_c5: x_w68_c5 + y_w68_c5 >= 0.2294
  lat_lin_w68_c6: x_w68_c6 + y_w68_c6 >= 0.2991
  lat_lin_w68_c7: x_w68_c7 + y_w68_c7 >= 0.2654
  lat_lin_w68_c8: x_w68_c8 + y_w68_c8 >= 0.1855
  lat_lin_w68_c9: x_w68_c9 + y_w68_c9 >= 0.0190
  lat_lin_w68_c10: x_w68_c10 + y_w68_c10 >= 0.0315
  lat_lin_w68_c11: x_w68_c11 + y_w68_c11 >= 0.0243
  lat_lin_w68_c12: x_w68_c12 + y_w68_c12 >= 0.0629
  lat_lin_w68_c13: x_w68_c13 + y_w68_c13 >= 0.2019
  lat_lin_w68_c14: x_w68_c14 + y_w68_c14 >= 0.2467
  lat_lin_w68_c15: x_w68_c15 + y_w68_c15 >= 0.1206
  lat_lin_w68_c16: x_w68_c16 + y_w68_c16 >= 0.2568
  lat_lin_w68_c17: x_w68_c17 + y_w68_c17 >= 0.0729
  lat_lin_w68_c18: x_w68_c18 + y_w68_c18 >= 0.1941
  lat_lin_w68_c19: x_w68_c19 + y_w68_c19 >= 0.1219
  lat_lin_w68_c20: x_w68_c20 + y_w68_c20 >= 0.1565
  lat_lin_w68_c21: x_w68_c21 + y_w68_c21 >= 0.1139
  lat_lin_w68_c22: x_w68_c22 + y_w68_c22 >= 0.0804
  lat_lin_w68_c23: x_w68_c23 + y_w68_c23 >= 0.2178
  lat_lin_w68_c24: x_w68_c24 + y_w68_c24 >= 0.0100
  demand_w68: x_w68_c0 + x_w68_c1 + x_w68_c2 + x_w68_c3 + x_w68_c4 + x_w68_c5 + x_w68_c6 + x_w68_c7 + x_w68_c8 + x_w68_c9 + x_w68_c10 + x_w68_c11 + x_w68_c12 + x_w68_c13 + x_w68_c14 + x_w68_c15 + x_w68_c16 + x_w68_c17 + x_w68_c18 + x_w68_c19 + x_w68_c20 + x_w68_c21 + x_w68_c22 + x_w68_c23 + x_w68_c24 = 4
  lat_lin_w69_c0: x_w69_c0 + y_w69_c0 >= 0.2869
  lat_lin_w69_c1: x_w69_c1 + y_w69_c1 >= 0.1304
  lat_lin_w69_c2: x_w69_c2 + y_w69_c2 >= 0.2033
  lat_lin_w69_c3: x_w69_c3 + y_w69_c3 >= 0.3151
  lat_lin_w69_c4: x_w69_c4 + y_w69_c4 >= 0.5504
  lat_lin_w69_c5: x_w69_c5 + y_w69_c5 >= 0.3447
  lat_lin_w69_c6: x_w69_c6 + y_w69_c6 >= 0.4371
  lat_lin_w69_c7: x_w69_c7 + y_w69_c7 >= 0.1707
  lat_lin_w69_c8: x_w69_c8 + y_w69_c8 >= 0.1906
  lat_lin_w69_c9: x_w69_c9 + y_w69_c9 >= 0.2196
  lat_lin_w69_c10: x_w69_c10 + y_w69_c10 >= 0.5196
  lat_lin_w69_c11: x_w69_c11 + y_w69_c11 >= 0.4425
  lat_lin_w69_c12: x_w69_c12 + y_w69_c12 >= 0.4338
  lat_lin_w69_c13: x_w69_c13 + y_w69_c13 >= 0.4564
  lat_lin_w69_c14: x_w69_c14 + y_w69_c14 >= 0.0856
  lat_lin_w69_c15: x_w69_c15 + y_w69_c15 >= 0.3641
  lat_lin_w69_c16: x_w69_c16 + y_w69_c16 >= 0.5542
  lat_lin_w69_c17: x_w69_c17 + y_w69_c17 >= 0.5560
  lat_lin_w69_c18: x_w69_c18 + y_w69_c18 >= 0.1651
  lat_lin_w69_c19: x_w69_c19 + y_w69_c19 >= 0.0253
  lat_lin_w69_c20: x_w69_c20 + y_w69_c20 >= 0.5341
  lat_lin_w69_c21: x_w69_c21 + y_w69_c21 >= 0.2076
  lat_lin_w69_c22: x_w69_c22 + y_w69_c22 >= 0.5699
  lat_lin_w69_c23: x_w69_c23 + y_w69_c23 >= 0.0446
  lat_lin_w69_c24: x_w69_c24 + y_w69_c24 >= 0.1926
  demand_w69: x_w69_c0 + x_w69_c1 + x_w69_c2 + x_w69_c3 + x_w69_c4 + x_w69_c5 + x_w69_c6 + x_w69_c7 + x_w69_c8 + x_w69_c9 + x_w69_c10 + x_w69_c11 + x_w69_c12 + x_w69_c13 + x_w69_c14 + x_w69_c15 + x_w69_c16 + x_w69_c17 + x_w69_c18 + x_w69_c19 + x_w69_c20 + x_w69_c21 + x_w69_c22 + x_w69_c23 + x_w69_c24 = 8
  lat_lin_w70_c0: x_w70_c0 + y_w70_c0 >= 0.5536
  lat_lin_w70_c1: x_w70_c1 + y_w70_c1 >= 0.1324
  lat_lin_w70_c2: x_w70_c2 + y_w70_c2 >= 0.0090
  lat_lin_w70_c3: x_w70_c3 + y_w70_c3 >= 0.2350
  lat_lin_w70_c4: x_w70_c4 + y_w70_c4 >= 0.0008
  lat_lin_w70_c5: x_w70_c5 + y_w70_c5 >= 0.5833
  lat_lin_w70_c6: x_w70_c6 + y_w70_c6 >= 0.3696
  lat_lin_w70_c7: x_w70_c7 + y_w70_c7 >= 0.0326
  lat_lin_w70_c8: x_w70_c8 + y_w70_c8 >= 0.0273
  lat_lin_w70_c9: x_w70_c9 + y_w70_c9 >= 0.0941
  lat_lin_w70_c10: x_w70_c10 + y_w70_c10 >= 0.3509
  lat_lin_w70_c11: x_w70_c11 + y_w70_c11 >= 0.2781
  lat_lin_w70_c12: x_w70_c12 + y_w70_c12 >= 0.2840
  lat_lin_w70_c13: x_w70_c13 + y_w70_c13 >= 0.6072
  lat_lin_w70_c14: x_w70_c14 + y_w70_c14 >= 0.6151
  lat_lin_w70_c15: x_w70_c15 + y_w70_c15 >= 0.6949
  lat_lin_w70_c16: x_w70_c16 + y_w70_c16 >= 0.2945
  lat_lin_w70_c17: x_w70_c17 + y_w70_c17 >= 0.5091
  lat_lin_w70_c18: x_w70_c18 + y_w70_c18 >= 0.0899
  lat_lin_w70_c19: x_w70_c19 + y_w70_c19 >= 0.6046
  lat_lin_w70_c20: x_w70_c20 + y_w70_c20 >= 0.1256
  lat_lin_w70_c21: x_w70_c21 + y_w70_c21 >= 0.0920
  lat_lin_w70_c22: x_w70_c22 + y_w70_c22 >= 0.5803
  lat_lin_w70_c23: x_w70_c23 + y_w70_c23 >= 0.4815
  lat_lin_w70_c24: x_w70_c24 + y_w70_c24 >= 0.3546
  demand_w70: x_w70_c0 + x_w70_c1 + x_w70_c2 + x_w70_c3 + x_w70_c4 + x_w70_c5 + x_w70_c6 + x_w70_c7 + x_w70_c8 + x_w70_c9 + x_w70_c10 + x_w70_c11 + x_w70_c12 + x_w70_c13 + x_w70_c14 + x_w70_c15 + x_w70_c16 + x_w70_c17 + x_w70_c18 + x_w70_c19 + x_w70_c20 + x_w70_c21 + x_w70_c22 + x_w70_c23 + x_w70_c24 = 8
  lat_lin_w71_c0: x_w71_c0 + y_w71_c0 >= 0.2787
  lat_lin_w71_c1: x_w71_c1 + y_w71_c1 >= 0.4597
  lat_lin_w71_c2: x_w71_c2 + y_w71_c2 >= 0.4379
  lat_lin_w71_c3: x_w71_c3 + y_w71_c3 >= 0.1264
  lat_lin_w71_c4: x_w71_c4 + y_w71_c4 >= 0.3168
  lat_lin_w71_c5: x_w71_c5 + y_w71_c5 >= 0.8993
  lat_lin_w71_c6: x_w71_c6 + y_w71_c6 >= 0.6761
  lat_lin_w71_c7: x_w71_c7 + y_w71_c7 >= 0.5067
  lat_lin_w71_c8: x_w71_c8 + y_w71_c8 >= 0.0654
  lat_lin_w71_c9: x_w71_c9 + y_w71_c9 >= 0.5316
  lat_lin_w71_c10: x_w71_c10 + y_w71_c10 >= 0.5937
  lat_lin_w71_c11: x_w71_c11 + y_w71_c11 >= 0.7208
  lat_lin_w71_c12: x_w71_c12 + y_w71_c12 >= 0.4954
  lat_lin_w71_c13: x_w71_c13 + y_w71_c13 >= 0.2173
  lat_lin_w71_c14: x_w71_c14 + y_w71_c14 >= 0.4822
  lat_lin_w71_c15: x_w71_c15 + y_w71_c15 >= 0.3707
  lat_lin_w71_c16: x_w71_c16 + y_w71_c16 >= 0.7177
  lat_lin_w71_c17: x_w71_c17 + y_w71_c17 >= 0.4613
  lat_lin_w71_c18: x_w71_c18 + y_w71_c18 >= 0.1485
  lat_lin_w71_c19: x_w71_c19 + y_w71_c19 >= 0.5655
  lat_lin_w71_c20: x_w71_c20 + y_w71_c20 >= 0.2064
  lat_lin_w71_c21: x_w71_c21 + y_w71_c21 >= 0.2443
  lat_lin_w71_c22: x_w71_c22 + y_w71_c22 >= 0.4847
  lat_lin_w71_c23: x_w71_c23 + y_w71_c23 >= 0.7348
  lat_lin_w71_c24: x_w71_c24 + y_w71_c24 >= 0.2581
  demand_w71: x_w71_c0 + x_w71_c1 + x_w71_c2 + x_w71_c3 + x_w71_c4 + x_w71_c5 + x_w71_c6 + x_w71_c7 + x_w71_c8 + x_w71_c9 + x_w71_c10 + x_w71_c11 + x_w71_c12 + x_w71_c13 + x_w71_c14 + x_w71_c15 + x_w71_c16 + x_w71_c17 + x_w71_c18 + x_w71_c19 + x_w71_c20 + x_w71_c21 + x_w71_c22 + x_w71_c23 + x_w71_c24 = 11
  lat_lin_w72_c0: x_w72_c0 + y_w72_c0 >= 0.8534
  lat_lin_w72_c1: x_w72_c1 + y_w72_c1 >= 0.3330
  lat_lin_w72_c2: x_w72_c2 + y_w72_c2 >= 0.8531
  lat_lin_w72_c3: x_w72_c3 + y_w72_c3 >= 1.1471
  lat_lin_w72_c4: x_w72_c4 + y_w72_c4 >= 0.2780
  lat_lin_w72_c5: x_w72_c5 + y_w72_c5 >= 0.2990
  lat_lin_w72_c6: x_w72_c6 + y_w72_c6 >= 0.3586
  lat_lin_w72_c7: x_w72_c7 + y_w72_c7 >= 0.2097
  lat_lin_w72_c8: x_w72_c8 + y_w72_c8 >= 0.6808
  lat_lin_w72_c9: x_w72_c9 + y_w72_c9 >= 0.5425
  lat_lin_w72_c10: x_w72_c10 + y_w72_c10 >= 0.0003
  lat_lin_w72_c11: x_w72_c11 + y_w72_c11 >= 0.5344
  lat_lin_w72_c12: x_w72_c12 + y_w72_c12 >= 1.1537
  lat_lin_w72_c13: x_w72_c13 + y_w72_c13 >= 0.1564
  lat_lin_w72_c14: x_w72_c14 + y_w72_c14 >= 0.4157
  lat_lin_w72_c15: x_w72_c15 + y_w72_c15 >= 1.1099
  lat_lin_w72_c16: x_w72_c16 + y_w72_c16 >= 0.8423
  lat_lin_w72_c17: x_w72_c17 + y_w72_c17 >= 0.5105
  lat_lin_w72_c18: x_w72_c18 + y_w72_c18 >= 0.3723
  lat_lin_w72_c19: x_w72_c19 + y_w72_c19 >= 0.4053
  lat_lin_w72_c20: x_w72_c20 + y_w72_c20 >= 0.0447
  lat_lin_w72_c21: x_w72_c21 + y_w72_c21 >= 1.0174
  lat_lin_w72_c22: x_w72_c22 + y_w72_c22 >= 0.7651
  lat_lin_w72_c23: x_w72_c23 + y_w72_c23 >= 1.0559
  lat_lin_w72_c24: x_w72_c24 + y_w72_c24 >= 0.0606
  demand_w72: x_w72_c0 + x_w72_c1 + x_w72_c2 + x_w72_c3 + x_w72_c4 + x_w72_c5 + x_w72_c6 + x_w72_c7 + x_w72_c8 + x_w72_c9 + x_w72_c10 + x_w72_c11 + x_w72_c12 + x_w72_c13 + x_w72_c14 + x_w72_c15 + x_w72_c16 + x_w72_c17 + x_w72_c18 + x_w72_c19 + x_w72_c20 + x_w72_c21 + x_w72_c22 + x_w72_c23 + x_w72_c24 = 14
  lat_lin_w73_c0: x_w73_c0 + y_w73_c0 >= 0.2403
  lat_lin_w73_c1: x_w73_c1 + y_w73_c1 >= 0.2159
  lat_lin_w73_c2: x_w73_c2 + y_w73_c2 >= 0.3559
  lat_lin_w73_c3: x_w73_c3 + y_w73_c3 >= 0.4443
  lat_lin_w73_c4: x_w73_c4 + y_w73_c4 >= 0.2768
  lat_lin_w73_c5: x_w73_c5 + y_w73_c5 >= 0.0223
  lat_lin_w73_c6: x_w73_c6 + y_w73_c6 >= 0.0991
  lat_lin_w73_c7: x_w73_c7 + y_w73_c7 >= 0.2968
  lat_lin_w73_c8: x_w73_c8 + y_w73_c8 >= 0.0697
  lat_lin_w73_c9: x_w73_c9 + y_w73_c9 >= 0.0230
  lat_lin_w73_c10: x_w73_c10 + y_w73_c10 >= 0.4353
  lat_lin_w73_c11: x_w73_c11 + y_w73_c11 >= 0.4004
  lat_lin_w73_c12: x_w73_c12 + y_w73_c12 >= 0.3535
  lat_lin_w73_c13: x_w73_c13 + y_w73_c13 >= 0.2818
  lat_lin_w73_c14: x_w73_c14 + y_w73_c14 >= 0.0795
  lat_lin_w73_c15: x_w73_c15 + y_w73_c15 >= 0.4375
  lat_lin_w73_c16: x_w73_c16 + y_w73_c16 >= 0.2549
  lat_lin_w73_c17: x_w73_c17 + y_w73_c17 >= 0.3609
  lat_lin_w73_c18: x_w73_c18 + y_w73_c18 >= 0.0141
  lat_lin_w73_c19: x_w73_c19 + y_w73_c19 >= 0.0196
  lat_lin_w73_c20: x_w73_c20 + y_w73_c20 >= 0.3749
  lat_lin_w73_c21: x_w73_c21 + y_w73_c21 >= 0.3827
  lat_lin_w73_c22: x_w73_c22 + y_w73_c22 >= 0.1694
  lat_lin_w73_c23: x_w73_c23 + y_w73_c23 >= 0.3574
  lat_lin_w73_c24: x_w73_c24 + y_w73_c24 >= 0.0339
  demand_w73: x_w73_c0 + x_w73_c1 + x_w73_c2 + x_w73_c3 + x_w73_c4 + x_w73_c5 + x_w73_c6 + x_w73_c7 + x_w73_c8 + x_w73_c9 + x_w73_c10 + x_w73_c11 + x_w73_c12 + x_w73_c13 + x_w73_c14 + x_w73_c15 + x_w73_c16 + x_w73_c17 + x_w73_c18 + x_w73_c19 + x_w73_c20 + x_w73_c21 + x_w73_c22 + x_w73_c23 + x_w73_c24 = 6
  lat_lin_w74_c0: x_w74_c0 + y_w74_c0 >= 0.2698
  lat_lin_w74_c1: x_w74_c1 + y_w74_c1 >= 0.2812
  lat_lin_w74_c2: x_w74_c2 + y_w74_c2 >= 0.2179
  lat_lin_w74_c3: x_w74_c3 + y_w74_c3 >= 0.2280
  lat_lin_w74_c4: x_w74_c4 + y_w74_c4 >= 0.0067
  lat_lin_w74_c5: x_w74_c5 + y_w74_c5 >= 0.0380
  lat_lin_w74_c6: x_w74_c6 + y_w74_c6 >= 0.3151
  lat_lin_w74_c7: x_w74_c7 + y_w74_c7 >= 0.0714
  lat_lin_w74_c8: x_w74_c8 + y_w74_c8 >= 0.2885
  lat_lin_w74_c9: x_w74_c9 + y_w74_c9 >= 0.0679
  lat_lin_w74_c10: x_w74_c10 + y_w74_c10 >= 0.2273
  lat_lin_w74_c11: x_w74_c11 + y_w74_c11 >= 0.0115
  lat_lin_w74_c12: x_w74_c12 + y_w74_c12 >= 0.2184
  lat_lin_w74_c13: x_w74_c13 + y_w74_c13 >= 0.2877
  lat_lin_w74_c14: x_w74_c14 + y_w74_c14 >= 0.0902
  lat_lin_w74_c15: x_w74_c15 + y_w74_c15 >= 0.3211
  lat_lin_w74_c16: x_w74_c16 + y_w74_c16 >= 0.0707
  lat_lin_w74_c17: x_w74_c17 + y_w74_c17 >= 0.0642
  lat_lin_w74_c18: x_w74_c18 + y_w74_c18 >= 0.1676
  lat_lin_w74_c19: x_w74_c19 + y_w74_c19 >= 0.0681
  lat_lin_w74_c20: x_w74_c20 + y_w74_c20 >= 0.0652
  lat_lin_w74_c21: x_w74_c21 + y_w74_c21 >= 0.2496
  lat_lin_w74_c22: x_w74_c22 + y_w74_c22 >= 0.1978
  lat_lin_w74_c23: x_w74_c23 + y_w74_c23 >= 0.1066
  lat_lin_w74_c24: x_w74_c24 + y_w74_c24 >= 0.0693
  demand_w74: x_w74_c0 + x_w74_c1 + x_w74_c2 + x_w74_c3 + x_w74_c4 + x_w74_c5 + x_w74_c6 + x_w74_c7 + x_w74_c8 + x_w74_c9 + x_w74_c10 + x_w74_c11 + x_w74_c12 + x_w74_c13 + x_w74_c14 + x_w74_c15 + x_w74_c16 + x_w74_c17 + x_w74_c18 + x_w74_c19 + x_w74_c20 + x_w74_c21 + x_w74_c22 + x_w74_c23 + x_w74_c24 = 4
  lat_lin_w75_c0: x_w75_c0 + y_w75_c0 >= 0.5184
  lat_lin_w75_c1: x_w75_c1 + y_w75_c1 >= 0.6596
  lat_lin_w75_c2: x_w75_c2 + y_w75_c2 >= 0.5676
  lat_lin_w75_c3: x_w75_c3 + y_w75_c3 >= 0.0250
  lat_lin_w75_c4: x_w75_c4 + y_w75_c4 >= 0.2229
  lat_lin_w75_c5: x_w75_c5 + y_w75_c5 >= 0.4928
  lat_lin_w75_c6: x_w75_c6 + y_w75_c6 >= 0.6718
  lat_lin_w75_c7: x_w75_c7 + y_w75_c7 >= 0.6163
  lat_lin_w75_c8: x_w75_c8 + y_w75_c8 >= 0.2994
  lat_lin_w75_c9: x_w75_c9 + y_w75_c9 >= 0.3967
  lat_lin_w75_c10: x_w75_c10 + y_w75_c10 >= 0.0512
  lat_lin_w75_c11: x_w75_c11 + y_w75_c11 >= 0.4612
  lat_lin_w75_c12: x_w75_c12 + y_w75_c12 >= 0.5648
  lat_lin_w75_c13: x_w75_c13 + y_w75_c13 >= 0.2512
  lat_lin_w75_c14: x_w75_c14 + y_w75_c14 >= 0.4141
  lat_lin_w75_c15: x_w75_c15 + y_w75_c15 >= 0.4704
  lat_lin_w75_c16: x_w75_c16 + y_w75_c16 >= 0.2895
  lat_lin_w75_c17: x_w75_c17 + y_w75_c17 >= 0.4754
  lat_lin_w75_c18: x_w75_c18 + y_w75_c18 >= 0.5911
  lat_lin_w75_c19: x_w75_c19 + y_w75_c19 >= 0.2257
  lat_lin_w75_c20: x_w75_c20 + y_w75_c20 >= 0.5653
  lat_lin_w75_c21: x_w75_c21 + y_w75_c21 >= 0.5256
  lat_lin_w75_c22: x_w75_c22 + y_w75_c22 >= 0.4810
  lat_lin_w75_c23: x_w75_c23 + y_w75_c23 >= 0.5056
  lat_lin_w75_c24: x_w75_c24 + y_w75_c24 >= 0.6573
  demand_w75: x_w75_c0 + x_w75_c1 + x_w75_c2 + x_w75_c3 + x_w75_c4 + x_w75_c5 + x_w75_c6 + x_w75_c7 + x_w75_c8 + x_w75_c9 + x_w75_c10 + x_w75_c11 + x_w75_c12 + x_w75_c13 + x_w75_c14 + x_w75_c15 + x_w75_c16 + x_w75_c17 + x_w75_c18 + x_w75_c19 + x_w75_c20 + x_w75_c21 + x_w75_c22 + x_w75_c23 + x_w75_c24 = 11
  lat_lin_w76_c0: x_w76_c0 + y_w76_c0 >= 0.5261
  lat_lin_w76_c1: x_w76_c1 + y_w76_c1 >= 0.0346
  lat_lin_w76_c2: x_w76_c2 + y_w76_c2 >= 0.5739
  lat_lin_w76_c3: x_w76_c3 + y_w76_c3 >= 0.1344
  lat_lin_w76_c4: x_w76_c4 + y_w76_c4 >= 0.5518
  lat_lin_w76_c5: x_w76_c5 + y_w76_c5 >= 0.3822
  lat_lin_w76_c6: x_w76_c6 + y_w76_c6 >= 0.0015
  lat_lin_w76_c7: x_w76_c7 + y_w76_c7 >= 0.8676
  lat_lin_w76_c8: x_w76_c8 + y_w76_c8 >= 0.0566
  lat_lin_w76_c9: x_w76_c9 + y_w76_c9 >= 0.6719
  lat_lin_w76_c10: x_w76_c10 + y_w76_c10 >= 0.4529
  lat_lin_w76_c11: x_w76_c11 + y_w76_c11 >= 0.7371
  lat_lin_w76_c12: x_w76_c12 + y_w76_c12 >= 0.1040
  lat_lin_w76_c13: x_w76_c13 + y_w76_c13 >= 0.3774
  lat_lin_w76_c14: x_w76_c14 + y_w76_c14 >= 0.0958
  lat_lin_w76_c15: x_w76_c15 + y_w76_c15 >= 0.9787
  lat_lin_w76_c16: x_w76_c16 + y_w76_c16 >= 0.4493
  lat_lin_w76_c17: x_w76_c17 + y_w76_c17 >= 0.5980
  lat_lin_w76_c18: x_w76_c18 + y_w76_c18 >= 0.1019
  lat_lin_w76_c19: x_w76_c19 + y_w76_c19 >= 0.9786
  lat_lin_w76_c20: x_w76_c20 + y_w76_c20 >= 0.7335
  lat_lin_w76_c21: x_w76_c21 + y_w76_c21 >= 0.4511
  lat_lin_w76_c22: x_w76_c22 + y_w76_c22 >= 0.2649
  lat_lin_w76_c23: x_w76_c23 + y_w76_c23 >= 0.5508
  lat_lin_w76_c24: x_w76_c24 + y_w76_c24 >= 0.3253
  demand_w76: x_w76_c0 + x_w76_c1 + x_w76_c2 + x_w76_c3 + x_w76_c4 + x_w76_c5 + x_w76_c6 + x_w76_c7 + x_w76_c8 + x_w76_c9 + x_w76_c10 + x_w76_c11 + x_w76_c12 + x_w76_c13 + x_w76_c14 + x_w76_c15 + x_w76_c16 + x_w76_c17 + x_w76_c18 + x_w76_c19 + x_w76_c20 + x_w76_c21 + x_w76_c22 + x_w76_c23 + x_w76_c24 = 11
  lat_lin_w77_c0: x_w77_c0 + y_w77_c0 >= 0.1360
  lat_lin_w77_c1: x_w77_c1 + y_w77_c1 >= 0.1636
  lat_lin_w77_c2: x_w77_c2 + y_w77_c2 >= 0.5478
  lat_lin_w77_c3: x_w77_c3 + y_w77_c3 >= 0.6818
  lat_lin_w77_c4: x_w77_c4 + y_w77_c4 >= 0.4489
  lat_lin_w77_c5: x_w77_c5 + y_w77_c5 >= 0.1241
  lat_lin_w77_c6: x_w77_c6 + y_w77_c6 >= 0.5615
  lat_lin_w77_c7: x_w77_c7 + y_w77_c7 >= 0.3047
  lat_lin_w77_c8: x_w77_c8 + y_w77_c8 >= 0.0751
  lat_lin_w77_c9: x_w77_c9 + y_w77_c9 >= 0.1689
  lat_lin_w77_c10: x_w77_c10 + y_w77_c10 >= 0.2468
  lat_lin_w77_c11: x_w77_c11 + y_w77_c11 >= 0.6493
  lat_lin_w77_c12: x_w77_c12 + y_w77_c12 >= 0.4985
  lat_lin_w77_c13: x_w77_c13 + y_w77_c13 >= 0.5346
  lat_lin_w77_c14: x_w77_c14 + y_w77_c14 >= 0.6185
  lat_lin_w77_c15: x_w77_c15 + y_w77_c15 >= 0.2722
  lat_lin_w77_c16: x_w77_c16 + y_w77_c16 >= 0.4558
  lat_lin_w77_c17: x_w77_c17 + y_w77_c17 >= 0.2025
  lat_lin_w77_c18: x_w77_c18 + y_w77_c18 >= 0.5312
  lat_lin_w77_c19: x_w77_c19 + y_w77_c19 >= 0.3393
  lat_lin_w77_c20: x_w77_c20 + y_w77_c20 >= 0.3241
  lat_lin_w77_c21: x_w77_c21 + y_w77_c21 >= 0.1422
  lat_lin_w77_c22: x_w77_c22 + y_w77_c22 >= 0.3729
  lat_lin_w77_c23: x_w77_c23 + y_w77_c23 >= 0.4060
  lat_lin_w77_c24: x_w77_c24 + y_w77_c24 >= 0.1938
  demand_w77: x_w77_c0 + x_w77_c1 + x_w77_c2 + x_w77_c3 + x_w77_c4 + x_w77_c5 + x_w77_c6 + x_w77_c7 + x_w77_c8 + x_w77_c9 + x_w77_c10 + x_w77_c11 + x_w77_c12 + x_w77_c13 + x_w77_c14 + x_w77_c15 + x_w77_c16 + x_w77_c17 + x_w77_c18 + x_w77_c19 + x_w77_c20 + x_w77_c21 + x_w77_c22 + x_w77_c23 + x_w77_c24 = 9
  lat_lin_w78_c0: x_w78_c0 + y_w78_c0 >= 0.1468
  lat_lin_w78_c1: x_w78_c1 + y_w78_c1 >= 0.2280
  lat_lin_w78_c2: x_w78_c2 + y_w78_c2 >= 0.1153
  lat_lin_w78_c3: x_w78_c3 + y_w78_c3 >= 0.1226
  lat_lin_w78_c4: x_w78_c4 + y_w78_c4 >= 0.1533
  lat_lin_w78_c5: x_w78_c5 + y_w78_c5 >= 0.0996
  lat_lin_w78_c6: x_w78_c6 + y_w78_c6 >= 0.3192
  lat_lin_w78_c7: x_w78_c7 + y_w78_c7 >= 0.2195
  lat_lin_w78_c8: x_w78_c8 + y_w78_c8 >= 0.3212
  lat_lin_w78_c9: x_w78_c9 + y_w78_c9 >= 0.2160
  lat_lin_w78_c10: x_w78_c10 + y_w78_c10 >= 0.3484
  lat_lin_w78_c11: x_w78_c11 + y_w78_c11 >= 0.1848
  lat_lin_w78_c12: x_w78_c12 + y_w78_c12 >= 0.2561
  lat_lin_w78_c13: x_w78_c13 + y_w78_c13 >= 0.1242
  lat_lin_w78_c14: x_w78_c14 + y_w78_c14 >= 0.3134
  lat_lin_w78_c15: x_w78_c15 + y_w78_c15 >= 0.3452
  lat_lin_w78_c16: x_w78_c16 + y_w78_c16 >= 0.3084
  lat_lin_w78_c17: x_w78_c17 + y_w78_c17 >= 0.3774
  lat_lin_w78_c18: x_w78_c18 + y_w78_c18 >= 0.2942
  lat_lin_w78_c19: x_w78_c19 + y_w78_c19 >= 0.1889
  lat_lin_w78_c20: x_w78_c20 + y_w78_c20 >= 0.2923
  lat_lin_w78_c21: x_w78_c21 + y_w78_c21 >= 0.1125
  lat_lin_w78_c22: x_w78_c22 + y_w78_c22 >= 0.4019
  lat_lin_w78_c23: x_w78_c23 + y_w78_c23 >= 0.3497
  lat_lin_w78_c24: x_w78_c24 + y_w78_c24 >= 0.1611
  demand_w78: x_w78_c0 + x_w78_c1 + x_w78_c2 + x_w78_c3 + x_w78_c4 + x_w78_c5 + x_w78_c6 + x_w78_c7 + x_w78_c8 + x_w78_c9 + x_w78_c10 + x_w78_c11 + x_w78_c12 + x_w78_c13 + x_w78_c14 + x_w78_c15 + x_w78_c16 + x_w78_c17 + x_w78_c18 + x_w78_c19 + x_w78_c20 + x_w78_c21 + x_w78_c22 + x_w78_c23 + x_w78_c24 = 6
  lat_lin_w79_c0: x_w79_c0 + y_w79_c0 >= 0.4361
  lat_lin_w79_c1: x_w79_c1 + y_w79_c1 >= 0.2261
  lat_lin_w79_c2: x_w79_c2 + y_w79_c2 >= 0.5115
  lat_lin_w79_c3: x_w79_c3 + y_w79_c3 >= 0.4067
  lat_lin_w79_c4: x_w79_c4 + y_w79_c4 >= 0.1565
  lat_lin_w79_c5: x_w79_c5 + y_w79_c5 >= 0.1672
  lat_lin_w79_c6: x_w79_c6 + y_w79_c6 >= 0.4824
  lat_lin_w79_c7: x_w79_c7 + y_w79_c7 >= 0.6768
  lat_lin_w79_c8: x_w79_c8 + y_w79_c8 >= 0.2836
  lat_lin_w79_c9: x_w79_c9 + y_w79_c9 >= 0.4466
  lat_lin_w79_c10: x_w79_c10 + y_w79_c10 >= 0.6574
  lat_lin_w79_c11: x_w79_c11 + y_w79_c11 >= 0.3834
  lat_lin_w79_c12: x_w79_c12 + y_w79_c12 >= 0.1878
  lat_lin_w79_c13: x_w79_c13 + y_w79_c13 >= 0.5473
  lat_lin_w79_c14: x_w79_c14 + y_w79_c14 >= 0.4789
  lat_lin_w79_c15: x_w79_c15 + y_w79_c15 >= 0.0377
  lat_lin_w79_c16: x_w79_c16 + y_w79_c16 >= 0.1060
  lat_lin_w79_c17: x_w79_c17 + y_w79_c17 >= 0.3193
  lat_lin_w79_c18: x_w79_c18 + y_w79_c18 >= 0.0990
  lat_lin_w79_c19: x_w79_c19 + y_w79_c19 >= 0.4208
  lat_lin_w79_c20: x_w79_c20 + y_w79_c20 >= 0.5306
  lat_lin_w79_c21: x_w79_c21 + y_w79_c21 >= 0.3773
  lat_lin_w79_c22: x_w79_c22 + y_w79_c22 >= 0.2629
  lat_lin_w79_c23: x_w79_c23 + y_w79_c23 >= 0.6679
  lat_lin_w79_c24: x_w79_c24 + y_w79_c24 >= 0.1303
  demand_w79: x_w79_c0 + x_w79_c1 + x_w79_c2 + x_w79_c3 + x_w79_c4 + x_w79_c5 + x_w79_c6 + x_w79_c7 + x_w79_c8 + x_w79_c9 + x_w79_c10 + x_w79_c11 + x_w79_c12 + x_w79_c13 + x_w79_c14 + x_w79_c15 + x_w79_c16 + x_w79_c17 + x_w79_c18 + x_w79_c19 + x_w79_c20 + x_w79_c21 + x_w79_c22 + x_w79_c23 + x_w79_c24 = 9
  lat_lin_w80_c0: x_w80_c0 + y_w80_c0 >= 0.8381
  lat_lin_w80_c1: x_w80_c1 + y_w80_c1 >= 0.0464
  lat_lin_w80_c2: x_w80_c2 + y_w80_c2 >= 0.7080
  lat_lin_w80_c3: x_w80_c3 + y_w80_c3 >= 0.4732
  lat_lin_w80_c4: x_w80_c4 + y_w80_c4 >= 0.3185
  lat_lin_w80_c5: x_w80_c5 + y_w80_c5 >= 0.5050
  lat_lin_w80_c6: x_w80_c6 + y_w80_c6 >= 0.0974
  lat_lin_w80_c7: x_w80_c7 + y_w80_c7 >= 0.7215
  lat_lin_w80_c8: x_w80_c8 + y_w80_c8 >= 0.9384
  lat_lin_w80_c9: x_w80_c9 + y_w80_c9 >= 0.0784
  lat_lin_w80_c10: x_w80_c10 + y_w80_c10 >= 0.1324
  lat_lin_w80_c11: x_w80_c11 + y_w80_c11 >= 0.8632
  lat_lin_w80_c12: x_w80_c12 + y_w80_c12 >= 0.4715
  lat_lin_w80_c13: x_w80_c13 + y_w80_c13 >= 0.8643
  lat_lin_w80_c14: x_w80_c14 + y_w80_c14 >= 0.2685
  lat_lin_w80_c15: x_w80_c15 + y_w80_c15 >= 0.6717
  lat_lin_w80_c16: x_w80_c16 + y_w80_c16 >= 0.1909
  lat_lin_w80_c17: x_w80_c17 + y_w80_c17 >= 0.8969
  lat_lin_w80_c18: x_w80_c18 + y_w80_c18 >= 0.3108
  lat_lin_w80_c19: x_w80_c19 + y_w80_c19 >= 0.7496
  lat_lin_w80_c20: x_w80_c20 + y_w80_c20 >= 0.0729
  lat_lin_w80_c21: x_w80_c21 + y_w80_c21 >= 0.8751
  lat_lin_w80_c22: x_w80_c22 + y_w80_c22 >= 0.4189
  lat_lin_w80_c23: x_w80_c23 + y_w80_c23 >= 0.7321
  lat_lin_w80_c24: x_w80_c24 + y_w80_c24 >= 0.7563
  demand_w80: x_w80_c0 + x_w80_c1 + x_w80_c2 + x_w80_c3 + x_w80_c4 + x_w80_c5 + x_w80_c6 + x_w80_c7 + x_w80_c8 + x_w80_c9 + x_w80_c10 + x_w80_c11 + x_w80_c12 + x_w80_c13 + x_w80_c14 + x_w80_c15 + x_w80_c16 + x_w80_c17 + x_w80_c18 + x_w80_c19 + x_w80_c20 + x_w80_c21 + x_w80_c22 + x_w80_c23 + x_w80_c24 = 13
  lat_lin_w81_c0: x_w81_c0 + y_w81_c0 >= 0.4812
  lat_lin_w81_c1: x_w81_c1 + y_w81_c1 >= 0.5291
  lat_lin_w81_c2: x_w81_c2 + y_w81_c2 >= 0.0994
  lat_lin_w81_c3: x_w81_c3 + y_w81_c3 >= 0.4887
  lat_lin_w81_c4: x_w81_c4 + y_w81_c4 >= 0.3874
  lat_lin_w81_c5: x_w81_c5 + y_w81_c5 >= 0.3118
  lat_lin_w81_c6: x_w81_c6 + y_w81_c6 >= 0.2786
  lat_lin_w81_c7: x_w81_c7 + y_w81_c7 >= 0.9115
  lat_lin_w81_c8: x_w81_c8 + y_w81_c8 >= 0.6429
  lat_lin_w81_c9: x_w81_c9 + y_w81_c9 >= 0.5075
  lat_lin_w81_c10: x_w81_c10 + y_w81_c10 >= 0.2401
  lat_lin_w81_c11: x_w81_c11 + y_w81_c11 >= 0.0355
  lat_lin_w81_c12: x_w81_c12 + y_w81_c12 >= 0.9209
  lat_lin_w81_c13: x_w81_c13 + y_w81_c13 >= 0.0973
  lat_lin_w81_c14: x_w81_c14 + y_w81_c14 >= 0.3028
  lat_lin_w81_c15: x_w81_c15 + y_w81_c15 >= 0.1445
  lat_lin_w81_c16: x_w81_c16 + y_w81_c16 >= 0.0182
  lat_lin_w81_c17: x_w81_c17 + y_w81_c17 >= 0.5873
  lat_lin_w81_c18: x_w81_c18 + y_w81_c18 >= 0.9178
  lat_lin_w81_c19: x_w81_c19 + y_w81_c19 >= 0.1904
  lat_lin_w81_c20: x_w81_c20 + y_w81_c20 >= 0.0798
  lat_lin_w81_c21: x_w81_c21 + y_w81_c21 >= 0.1748
  lat_lin_w81_c22: x_w81_c22 + y_w81_c22 >= 0.4925
  lat_lin_w81_c23: x_w81_c23 + y_w81_c23 >= 0.5902
  lat_lin_w81_c24: x_w81_c24 + y_w81_c24 >= 0.5700
  demand_w81: x_w81_c0 + x_w81_c1 + x_w81_c2 + x_w81_c3 + x_w81_c4 + x_w81_c5 + x_w81_c6 + x_w81_c7 + x_w81_c8 + x_w81_c9 + x_w81_c10 + x_w81_c11 + x_w81_c12 + x_w81_c13 + x_w81_c14 + x_w81_c15 + x_w81_c16 + x_w81_c17 + x_w81_c18 + x_w81_c19 + x_w81_c20 + x_w81_c21 + x_w81_c22 + x_w81_c23 + x_w81_c24 = 10
  lat_lin_w82_c0: x_w82_c0 + y_w82_c0 >= 0.2179
  lat_lin_w82_c1: x_w82_c1 + y_w82_c1 >= 0.1043
  lat_lin_w82_c2: x_w82_c2 + y_w82_c2 >= 0.0181
  lat_lin_w82_c3: x_w82_c3 + y_w82_c3 >= 0.2229
  lat_lin_w82_c4: x_w82_c4 + y_w82_c4 >= 0.0132
  lat_lin_w82_c5: x_w82_c5 + y_w82_c5 >= 0.1807
  lat_lin_w82_c6: x_w82_c6 + y_w82_c6 >= 0.1563
  lat_lin_w82_c7: x_w82_c7 + y_w82_c7 >= 0.1379
  lat_lin_w82_c8: x_w82_c8 + y_w82_c8 >= 0.1686
  lat_lin_w82_c9: x_w82_c9 + y_w82_c9 >= 0.1066
  lat_lin_w82_c10: x_w82_c10 + y_w82_c10 >= 0.1622
  lat_lin_w82_c11: x_w82_c11 + y_w82_c11 >= 0.1977
  lat_lin_w82_c12: x_w82_c12 + y_w82_c12 >= 0.0749
  lat_lin_w82_c13: x_w82_c13 + y_w82_c13 >= 0.2198
  lat_lin_w82_c14: x_w82_c14 + y_w82_c14 >= 0.1717
  lat_lin_w82_c15: x_w82_c15 + y_w82_c15 >= 0.0459
  lat_lin_w82_c16: x_w82_c16 + y_w82_c16 >= 0.1353
  lat_lin_w82_c17: x_w82_c17 + y_w82_c17 >= 0.0243
  lat_lin_w82_c18: x_w82_c18 + y_w82_c18 >= 0.1731
  lat_lin_w82_c19: x_w82_c19 + y_w82_c19 >= 0.0708
  lat_lin_w82_c20: x_w82_c20 + y_w82_c20 >= 0.0003
  lat_lin_w82_c21: x_w82_c21 + y_w82_c21 >= 0.2006
  lat_lin_w82_c22: x_w82_c22 + y_w82_c22 >= 0.0254
  lat_lin_w82_c23: x_w82_c23 + y_w82_c23 >= 0.0337
  lat_lin_w82_c24: x_w82_c24 + y_w82_c24 >= 0.1376
  demand_w82: x_w82_c0 + x_w82_c1 + x_w82_c2 + x_w82_c3 + x_w82_c4 + x_w82_c5 + x_w82_c6 + x_w82_c7 + x_w82_c8 + x_w82_c9 + x_w82_c10 + x_w82_c11 + x_w82_c12 + x_w82_c13 + x_w82_c14 + x_w82_c15 + x_w82_c16 + x_w82_c17 + x_w82_c18 + x_w82_c19 + x_w82_c20 + x_w82_c21 + x_w82_c22 + x_w82_c23 + x_w82_c24 = 3
  lat_lin_w83_c0: x_w83_c0 + y_w83_c0 >= 0.4028
  lat_lin_w83_c1: x_w83_c1 + y_w83_c1 >= 0.0509
  lat_lin_w83_c2: x_w83_c2 + y_w83_c2 >= 0.3921
  lat_lin_w83_c3: x_w83_c3 + y_w83_c3 >= 0.2797
  lat_lin_w83_c4: x_w83_c4 + y_w83_c4 >= 0.1348
  lat_lin_w83_c5: x_w83_c5 + y_w83_c5 >= 0.1100
  lat_lin_w83_c6: x_w83_c6 + y_w83_c6 >= 0.2687
  lat_lin_w83_c7: x_w83_c7 + y_w83_c7 >= 0.0428
  lat_lin_w83_c8: x_w83_c8 + y_w83_c8 >= 0.1337
  lat_lin_w83_c9: x_w83_c9 + y_w83_c9 >= 0.2157
  lat_lin_w83_c10: x_w83_c10 + y_w83_c10 >= 0.4492
  lat_lin_w83_c11: x_w83_c11 + y_w83_c11 >= 0.0617
  lat_lin_w83_c12: x_w83_c12 + y_w83_c12 >= 0.4123
  lat_lin_w83_c13: x_w83_c13 + y_w83_c13 >= 0.1245
  lat_lin_w83_c14: x_w83_c14 + y_w83_c14 >= 0.3690
  lat_lin_w83_c15: x_w83_c15 + y_w83_c15 >= 0.2191
  lat_lin_w83_c16: x_w83_c16 + y_w83_c16 >= 0.0654
  lat_lin_w83_c17: x_w83_c17 + y_w83_c17 >= 0.2053
  lat_lin_w83_c18: x_w83_c18 + y_w83_c18 >= 0.3190
  lat_lin_w83_c19: x_w83_c19 + y_w83_c19 >= 0.3375
  lat_lin_w83_c20: x_w83_c20 + y_w83_c20 >= 0.3279
  lat_lin_w83_c21: x_w83_c21 + y_w83_c21 >= 0.2324
  lat_lin_w83_c22: x_w83_c22 + y_w83_c22 >= 0.1169
  lat_lin_w83_c23: x_w83_c23 + y_w83_c23 >= 0.3245
  lat_lin_w83_c24: x_w83_c24 + y_w83_c24 >= 0.4041
  demand_w83: x_w83_c0 + x_w83_c1 + x_w83_c2 + x_w83_c3 + x_w83_c4 + x_w83_c5 + x_w83_c6 + x_w83_c7 + x_w83_c8 + x_w83_c9 + x_w83_c10 + x_w83_c11 + x_w83_c12 + x_w83_c13 + x_w83_c14 + x_w83_c15 + x_w83_c16 + x_w83_c17 + x_w83_c18 + x_w83_c19 + x_w83_c20 + x_w83_c21 + x_w83_c22 + x_w83_c23 + x_w83_c24 = 6
  lat_lin_w84_c0: x_w84_c0 + y_w84_c0 >= 0.6399
  lat_lin_w84_c1: x_w84_c1 + y_w84_c1 >= 0.9079
  lat_lin_w84_c2: x_w84_c2 + y_w84_c2 >= 0.5813
  lat_lin_w84_c3: x_w84_c3 + y_w84_c3 >= 0.2912
  lat_lin_w84_c4: x_w84_c4 + y_w84_c4 >= 0.8084
  lat_lin_w84_c5: x_w84_c5 + y_w84_c5 >= 0.2238
  lat_lin_w84_c6: x_w84_c6 + y_w84_c6 >= 0.1912
  lat_lin_w84_c7: x_w84_c7 + y_w84_c7 >= 0.5752
  lat_lin_w84_c8: x_w84_c8 + y_w84_c8 >= 0.6507
  lat_lin_w84_c9: x_w84_c9 + y_w84_c9 >= 0.3476
  lat_lin_w84_c10: x_w84_c10 + y_w84_c10 >= 0.6339
  lat_lin_w84_c11: x_w84_c11 + y_w84_c11 >= 0.7124
  lat_lin_w84_c12: x_w84_c12 + y_w84_c12 >= 0.9079
  lat_lin_w84_c13: x_w84_c13 + y_w84_c13 >= 0.1723
  lat_lin_w84_c14: x_w84_c14 + y_w84_c14 >= 0.9690
  lat_lin_w84_c15: x_w84_c15 + y_w84_c15 >= 0.1420
  lat_lin_w84_c16: x_w84_c16 + y_w84_c16 >= 0.9600
  lat_lin_w84_c17: x_w84_c17 + y_w84_c17 >= 0.8743
  lat_lin_w84_c18: x_w84_c18 + y_w84_c18 >= 0.7011
  lat_lin_w84_c19: x_w84_c19 + y_w84_c19 >= 0.6552
  lat_lin_w84_c20: x_w84_c20 + y_w84_c20 >= 0.7217
  lat_lin_w84_c21: x_w84_c21 + y_w84_c21 >= 0.6212
  lat_lin_w84_c22: x_w84_c22 + y_w84_c22 >= 0.3966
  lat_lin_w84_c23: x_w84_c23 + y_w84_c23 >= 0.4904
  lat_lin_w84_c24: x_w84_c24 + y_w84_c24 >= 0.8247
  demand_w84: x_w84_c0 + x_w84_c1 + x_w84_c2 + x_w84_c3 + x_w84_c4 + x_w84_c5 + x_w84_c6 + x_w84_c7 + x_w84_c8 + x_w84_c9 + x_w84_c10 + x_w84_c11 + x_w84_c12 + x_w84_c13 + x_w84_c14 + x_w84_c15 + x_w84_c16 + x_w84_c17 + x_w84_c18 + x_w84_c19 + x_w84_c20 + x_w84_c21 + x_w84_c22 + x_w84_c23 + x_w84_c24 = 15
  lat_lin_w85_c0: x_w85_c0 + y_w85_c0 >= 0.5562
  lat_lin_w85_c1: x_w85_c1 + y_w85_c1 >= 0.5023
  lat_lin_w85_c2: x_w85_c2 + y_w85_c2 >= 0.1485
  lat_lin_w85_c3: x_w85_c3 + y_w85_c3 >= 0.4864
  lat_lin_w85_c4: x_w85_c4 + y_w85_c4 >= 0.6735
  lat_lin_w85_c5: x_w85_c5 + y_w85_c5 >= 0.3459
  lat_lin_w85_c6: x_w85_c6 + y_w85_c6 >= 0.7559
  lat_lin_w85_c7: x_w85_c7 + y_w85_c7 >= 0.0207
  lat_lin_w85_c8: x_w85_c8 + y_w85_c8 >= 0.3958
  lat_lin_w85_c9: x_w85_c9 + y_w85_c9 >= 0.4796
  lat_lin_w85_c10: x_w85_c10 + y_w85_c10 >= 0.1279
  lat_lin_w85_c11: x_w85_c11 + y_w85_c11 >= 0.7835
  lat_lin_w85_c12: x_w85_c12 + y_w85_c12 >= 0.6014
  lat_lin_w85_c13: x_w85_c13 + y_w85_c13 >= 0.6856
  lat_lin_w85_c14: x_w85_c14 + y_w85_c14 >= 0.6484
  lat_lin_w85_c15: x_w85_c15 + y_w85_c15 >= 0.0619
  lat_lin_w85_c16: x_w85_c16 + y_w85_c16 >= 0.3206
  lat_lin_w85_c17: x_w85_c17 + y_w85_c17 >= 0.1087
  lat_lin_w85_c18: x_w85_c18 + y_w85_c18 >= 0.5641
  lat_lin_w85_c19: x_w85_c19 + y_w85_c19 >= 0.1404
  lat_lin_w85_c20: x_w85_c20 + y_w85_c20 >= 0.3922
  lat_lin_w85_c21: x_w85_c21 + y_w85_c21 >= 0.4206
  lat_lin_w85_c22: x_w85_c22 + y_w85_c22 >= 0.0939
  lat_lin_w85_c23: x_w85_c23 + y_w85_c23 >= 0.2248
  lat_lin_w85_c24: x_w85_c24 + y_w85_c24 >= 0.4609
  demand_w85: x_w85_c0 + x_w85_c1 + x_w85_c2 + x_w85_c3 + x_w85_c4 + x_w85_c5 + x_w85_c6 + x_w85_c7 + x_w85_c8 + x_w85_c9 + x_w85_c10 + x_w85_c11 + x_w85_c12 + x_w85_c13 + x_w85_c14 + x_w85_c15 + x_w85_c16 + x_w85_c17 + x_w85_c18 + x_w85_c19 + x_w85_c20 + x_w85_c21 + x_w85_c22 + x_w85_c23 + x_w85_c24 = 10
  lat_lin_w86_c0: x_w86_c0 + y_w86_c0 >= 0.4283
  lat_lin_w86_c1: x_w86_c1 + y_w86_c1 >= 0.3111
  lat_lin_w86_c2: x_w86_c2 + y_w86_c2 >= 0.5226
  lat_lin_w86_c3: x_w86_c3 + y_w86_c3 >= 0.3899
  lat_lin_w86_c4: x_w86_c4 + y_w86_c4 >= 0.4451
  lat_lin_w86_c5: x_w86_c5 + y_w86_c5 >= 0.5298
  lat_lin_w86_c6: x_w86_c6 + y_w86_c6 >= 0.3269
  lat_lin_w86_c7: x_w86_c7 + y_w86_c7 >= 0.6100
  lat_lin_w86_c8: x_w86_c8 + y_w86_c8 >= 0.2438
  lat_lin_w86_c9: x_w86_c9 + y_w86_c9 >= 0.2698
  lat_lin_w86_c10: x_w86_c10 + y_w86_c10 >= 0.5765
  lat_lin_w86_c11: x_w86_c11 + y_w86_c11 >= 0.2951
  lat_lin_w86_c12: x_w86_c12 + y_w86_c12 >= 0.4490
  lat_lin_w86_c13: x_w86_c13 + y_w86_c13 >= 0.4827
  lat_lin_w86_c14: x_w86_c14 + y_w86_c14 >= 0.4048
  lat_lin_w86_c15: x_w86_c15 + y_w86_c15 >= 0.5305
  lat_lin_w86_c16: x_w86_c16 + y_w86_c16 >= 0.5097
  lat_lin_w86_c17: x_w86_c17 + y_w86_c17 >= 0.5035
  lat_lin_w86_c18: x_w86_c18 + y_w86_c18 >= 0.3156
  lat_lin_w86_c19: x_w86_c19 + y_w86_c19 >= 0.1868
  lat_lin_w86_c20: x_w86_c20 + y_w86_c20 >= 0.2806
  lat_lin_w86_c21: x_w86_c21 + y_w86_c21 >= 0.2118
  lat_lin_w86_c22: x_w86_c22 + y_w86_c22 >= 0.1543
  lat_lin_w86_c23: x_w86_c23 + y_w86_c23 >= 0.6263
  lat_lin_w86_c24: x_w86_c24 + y_w86_c24 >= 0.3955
  demand_w86: x_w86_c0 + x_w86_c1 + x_w86_c2 + x_w86_c3 + x_w86_c4 + x_w86_c5 + x_w86_c6 + x_w86_c7 + x_w86_c8 + x_w86_c9 + x_w86_c10 + x_w86_c11 + x_w86_c12 + x_w86_c13 + x_w86_c14 + x_w86_c15 + x_w86_c16 + x_w86_c17 + x_w86_c18 + x_w86_c19 + x_w86_c20 + x_w86_c21 + x_w86_c22 + x_w86_c23 + x_w86_c24 = 10
  lat_lin_w87_c0: x_w87_c0 + y_w87_c0 >= 0.0342
  lat_lin_w87_c1: x_w87_c1 + y_w87_c1 >= 0.1289
  lat_lin_w87_c2: x_w87_c2 + y_w87_c2 >= 0.5600
  lat_lin_w87_c3: x_w87_c3 + y_w87_c3 >= 0.2304
  lat_lin_w87_c4: x_w87_c4 + y_w87_c4 >= 0.6654
  lat_lin_w87_c5: x_w87_c5 + y_w87_c5 >= 0.1891
  lat_lin_w87_c6: x_w87_c6 + y_w87_c6 >= 0.3482
  lat_lin_w87_c7: x_w87_c7 + y_w87_c7 >= 0.0244
  lat_lin_w87_c8: x_w87_c8 + y_w87_c8 >= 0.6531
  lat_lin_w87_c9: x_w87_c9 + y_w87_c9 >= 0.1679
  lat_lin_w87_c10: x_w87_c10 + y_w87_c10 >= 0.5585
  lat_lin_w87_c11: x_w87_c11 + y_w87_c11 >= 0.1639
  lat_lin_w87_c12: x_w87_c12 + y_w87_c12 >= 0.2191
  lat_lin_w87_c13: x_w87_c13 + y_w87_c13 >= 0.2501
  lat_lin_w87_c14: x_w87_c14 + y_w87_c14 >= 0.1910
  lat_lin_w87_c15: x_w87_c15 + y_w87_c15 >= 0.2829
  lat_lin_w87_c16: x_w87_c16 + y_w87_c16 >= 0.2254
  lat_lin_w87_c17: x_w87_c17 + y_w87_c17 >= 0.0051
  lat_lin_w87_c18: x_w87_c18 + y_w87_c18 >= 0.6686
  lat_lin_w87_c19: x_w87_c19 + y_w87_c19 >= 0.2195
  lat_lin_w87_c20: x_w87_c20 + y_w87_c20 >= 0.0837
  lat_lin_w87_c21: x_w87_c21 + y_w87_c21 >= 0.1699
  lat_lin_w87_c22: x_w87_c22 + y_w87_c22 >= 0.5591
  lat_lin_w87_c23: x_w87_c23 + y_w87_c23 >= 0.0107
  lat_lin_w87_c24: x_w87_c24 + y_w87_c24 >= 0.3913
  demand_w87: x_w87_c0 + x_w87_c1 + x_w87_c2 + x_w87_c3 + x_w87_c4 + x_w87_c5 + x_w87_c6 + x_w87_c7 + x_w87_c8 + x_w87_c9 + x_w87_c10 + x_w87_c11 + x_w87_c12 + x_w87_c13 + x_w87_c14 + x_w87_c15 + x_w87_c16 + x_w87_c17 + x_w87_c18 + x_w87_c19 + x_w87_c20 + x_w87_c21 + x_w87_c22 + x_w87_c23 + x_w87_c24 = 7
  lat_lin_w88_c0: x_w88_c0 + y_w88_c0 >= 0.5094
  lat_lin_w88_c1: x_w88_c1 + y_w88_c1 >= 0.3622
  lat_lin_w88_c2: x_w88_c2 + y_w88_c2 >= 0.4694
  lat_lin_w88_c3: x_w88_c3 + y_w88_c3 >= 0.1434
  lat_lin_w88_c4: x_w88_c4 + y_w88_c4 >= 0.5382
  lat_lin_w88_c5: x_w88_c5 + y_w88_c5 >= 0.2044
  lat_lin_w88_c6: x_w88_c6 + y_w88_c6 >= 0.5930
  lat_lin_w88_c7: x_w88_c7 + y_w88_c7 >= 0.5790
  lat_lin_w88_c8: x_w88_c8 + y_w88_c8 >= 0.0560
  lat_lin_w88_c9: x_w88_c9 + y_w88_c9 >= 0.8702
  lat_lin_w88_c10: x_w88_c10 + y_w88_c10 >= 0.1511
  lat_lin_w88_c11: x_w88_c11 + y_w88_c11 >= 0.2034
  lat_lin_w88_c12: x_w88_c12 + y_w88_c12 >= 0.1564
  lat_lin_w88_c13: x_w88_c13 + y_w88_c13 >= 0.7619
  lat_lin_w88_c14: x_w88_c14 + y_w88_c14 >= 0.7948
  lat_lin_w88_c15: x_w88_c15 + y_w88_c15 >= 0.9456
  lat_lin_w88_c16: x_w88_c16 + y_w88_c16 >= 0.1661
  lat_lin_w88_c17: x_w88_c17 + y_w88_c17 >= 0.7884
  lat_lin_w88_c18: x_w88_c18 + y_w88_c18 >= 0.4899
  lat_lin_w88_c19: x_w88_c19 + y_w88_c19 >= 0.3442
  lat_lin_w88_c20: x_w88_c20 + y_w88_c20 >= 0.4132
  lat_lin_w88_c21: x_w88_c21 + y_w88_c21 >= 0.9559
  lat_lin_w88_c22: x_w88_c22 + y_w88_c22 >= 0.0804
  lat_lin_w88_c23: x_w88_c23 + y_w88_c23 >= 0.8227
  lat_lin_w88_c24: x_w88_c24 + y_w88_c24 >= 0.6007
  demand_w88: x_w88_c0 + x_w88_c1 + x_w88_c2 + x_w88_c3 + x_w88_c4 + x_w88_c5 + x_w88_c6 + x_w88_c7 + x_w88_c8 + x_w88_c9 + x_w88_c10 + x_w88_c11 + x_w88_c12 + x_w88_c13 + x_w88_c14 + x_w88_c15 + x_w88_c16 + x_w88_c17 + x_w88_c18 + x_w88_c19 + x_w88_c20 + x_w88_c21 + x_w88_c22 + x_w88_c23 + x_w88_c24 = 12
  lat_lin_w89_c0: x_w89_c0 + y_w89_c0 >= 0.2635
  lat_lin_w89_c1: x_w89_c1 + y_w89_c1 >= 0.2382
  lat_lin_w89_c2: x_w89_c2 + y_w89_c2 >= 0.3646
  lat_lin_w89_c3: x_w89_c3 + y_w89_c3 >= 0.3635
  lat_lin_w89_c4: x_w89_c4 + y_w89_c4 >= 0.1292
  lat_lin_w89_c5: x_w89_c5 + y_w89_c5 >= 0.2770
  lat_lin_w89_c6: x_w89_c6 + y_w89_c6 >= 0.2059
  lat_lin_w89_c7: x_w89_c7 + y_w89_c7 >= 0.3909
  lat_lin_w89_c8: x_w89_c8 + y_w89_c8 >= 0.1236
  lat_lin_w89_c9: x_w89_c9 + y_w89_c9 >= 0.1721
  lat_lin_w89_c10: x_w89_c10 + y_w89_c10 >= 0.0040
  lat_lin_w89_c11: x_w89_c11 + y_w89_c11 >= 0.3781
  lat_lin_w89_c12: x_w89_c12 + y_w89_c12 >= 0.0894
  lat_lin_w89_c13: x_w89_c13 + y_w89_c13 >= 0.1961
  lat_lin_w89_c14: x_w89_c14 + y_w89_c14 >= 0.2848
  lat_lin_w89_c15: x_w89_c15 + y_w89_c15 >= 0.0359
  lat_lin_w89_c16: x_w89_c16 + y_w89_c16 >= 0.0807
  lat_lin_w89_c17: x_w89_c17 + y_w89_c17 >= 0.3649
  lat_lin_w89_c18: x_w89_c18 + y_w89_c18 >= 0.2315
  lat_lin_w89_c19: x_w89_c19 + y_w89_c19 >= 0.3924
  lat_lin_w89_c20: x_w89_c20 + y_w89_c20 >= 0.0824
  lat_lin_w89_c21: x_w89_c21 + y_w89_c21 >= 0.2713
  lat_lin_w89_c22: x_w89_c22 + y_w89_c22 >= 0.3366
  lat_lin_w89_c23: x_w89_c23 + y_w89_c23 >= 0.3641
  lat_lin_w89_c24: x_w89_c24 + y_w89_c24 >= 0.3593
  demand_w89: x_w89_c0 + x_w89_c1 + x_w89_c2 + x_w89_c3 + x_w89_c4 + x_w89_c5 + x_w89_c6 + x_w89_c7 + x_w89_c8 + x_w89_c9 + x_w89_c10 + x_w89_c11 + x_w89_c12 + x_w89_c13 + x_w89_c14 + x_w89_c15 + x_w89_c16 + x_w89_c17 + x_w89_c18 + x_w89_c19 + x_w89_c20 + x_w89_c21 + x_w89_c22 + x_w89_c23 + x_w89_c24 = 6
  lat_lin_w90_c0: x_w90_c0 + y_w90_c0 >= 0.1117
  lat_lin_w90_c1: x_w90_c1 + y_w90_c1 >= 0.1070
  lat_lin_w90_c2: x_w90_c2 + y_w90_c2 >= 0.4166
  lat_lin_w90_c3: x_w90_c3 + y_w90_c3 >= 0.4009
  lat_lin_w90_c4: x_w90_c4 + y_w90_c4 >= 0.3068
  lat_lin_w90_c5: x_w90_c5 + y_w90_c5 >= 0.2597
  lat_lin_w90_c6: x_w90_c6 + y_w90_c6 >= 0.0465
  lat_lin_w90_c7: x_w90_c7 + y_w90_c7 >= 0.1253
  lat_lin_w90_c8: x_w90_c8 + y_w90_c8 >= 0.1341
  lat_lin_w90_c9: x_w90_c9 + y_w90_c9 >= 0.3814
  lat_lin_w90_c10: x_w90_c10 + y_w90_c10 >= 0.0721
  lat_lin_w90_c11: x_w90_c11 + y_w90_c11 >= 0.1140
  lat_lin_w90_c12: x_w90_c12 + y_w90_c12 >= 0.1375
  lat_lin_w90_c13: x_w90_c13 + y_w90_c13 >= 0.4074
  lat_lin_w90_c14: x_w90_c14 + y_w90_c14 >= 0.3975
  lat_lin_w90_c15: x_w90_c15 + y_w90_c15 >= 0.2654
  lat_lin_w90_c16: x_w90_c16 + y_w90_c16 >= 0.0425
  lat_lin_w90_c17: x_w90_c17 + y_w90_c17 >= 0.0656
  lat_lin_w90_c18: x_w90_c18 + y_w90_c18 >= 0.0418
  lat_lin_w90_c19: x_w90_c19 + y_w90_c19 >= 0.0921
  lat_lin_w90_c20: x_w90_c20 + y_w90_c20 >= 0.0944
  lat_lin_w90_c21: x_w90_c21 + y_w90_c21 >= 0.0153
  lat_lin_w90_c22: x_w90_c22 + y_w90_c22 >= 0.3429
  lat_lin_w90_c23: x_w90_c23 + y_w90_c23 >= 0.2448
  lat_lin_w90_c24: x_w90_c24 + y_w90_c24 >= 0.3769
  demand_w90: x_w90_c0 + x_w90_c1 + x_w90_c2 + x_w90_c3 + x_w90_c4 + x_w90_c5 + x_w90_c6 + x_w90_c7 + x_w90_c8 + x_w90_c9 + x_w90_c10 + x_w90_c11 + x_w90_c12 + x_w90_c13 + x_w90_c14 + x_w90_c15 + x_w90_c16 + x_w90_c17 + x_w90_c18 + x_w90_c19 + x_w90_c20 + x_w90_c21 + x_w90_c22 + x_w90_c23 + x_w90_c24 = 5
  lat_lin_w91_c0: x_w91_c0 + y_w91_c0 >= 0.1526
  lat_lin_w91_c1: x_w91_c1 + y_w91_c1 >= 0.2540
  lat_lin_w91_c2: x_w91_c2 + y_w91_c2 >= 0.2711
  lat_lin_w91_c3: x_w91_c3 + y_w91_c3 >= 0.3451
  lat_lin_w91_c4: x_w91_c4 + y_w91_c4 >= 0.2376
  lat_lin_w91_c5: x_w91_c5 + y_w91_c5 >= 0.1131
  lat_lin_w91_c6: x_w91_c6 + y_w91_c6 >= 0.2231
  lat_lin_w91_c7: x_w91_c7 + y_w91_c7 >= 0.3270
  lat_lin_w91_c8: x_w91_c8 + y_w91_c8 >= 0.1669
  lat_lin_w91_c9: x_w91_c9 + y_w91_c9 >= 0.1021
  lat_lin_w91_c10: x_w91_c10 + y_w91_c10 >= 0.2516
  lat_lin_w91_c11: x_w91_c11 + y_w91_c11 >= 0.0340
  lat_lin_w91_c12: x_w91_c12 + y_w91_c12 >= 0.4771
  lat_lin_w91_c13: x_w91_c13 + y_w91_c13 >= 0.4908
  lat_lin_w91_c14: x_w91_c14 + y_w91_c14 >= 0.1049
  lat_lin_w91_c15: x_w91_c15 + y_w91_c15 >= 0.4420
  lat_lin_w91_c16: x_w91_c16 + y_w91_c16 >= 0.4960
  lat_lin_w91_c17: x_w91_c17 + y_w91_c17 >= 0.2376
  lat_lin_w91_c18: x_w91_c18 + y_w91_c18 >= 0.0835
  lat_lin_w91_c19: x_w91_c19 + y_w91_c19 >= 0.1558
  lat_lin_w91_c20: x_w91_c20 + y_w91_c20 >= 0.2630
  lat_lin_w91_c21: x_w91_c21 + y_w91_c21 >= 0.2740
  lat_lin_w91_c22: x_w91_c22 + y_w91_c22 >= 0.0780
  lat_lin_w91_c23: x_w91_c23 + y_w91_c23 >= 0.3196
  lat_lin_w91_c24: x_w91_c24 + y_w91_c24 >= 0.0995
  demand_w91: x_w91_c0 + x_w91_c1 + x_w91_c2 + x_w91_c3 + x_w91_c4 + x_w91_c5 + x_w91_c6 + x_w91_c7 + x_w91_c8 + x_w91_c9 + x_w91_c10 + x_w91_c11 + x_w91_c12 + x_w91_c13 + x_w91_c14 + x_w91_c15 + x_w91_c16 + x_w91_c17 + x_w91_c18 + x_w91_c19 + x_w91_c20 + x_w91_c21 + x_w91_c22 + x_w91_c23 + x_w91_c24 = 6
  lat_lin_w92_c0: x_w92_c0 + y_w92_c0 >= 0.1127
  lat_lin_w92_c1: x_w92_c1 + y_w92_c1 >= 0.4382
  lat_lin_w92_c2: x_w92_c2 + y_w92_c2 >= 0.0028
  lat_lin_w92_c3: x_w92_c3 + y_w92_c3 >= 0.3542
  lat_lin_w92_c4: x_w92_c4 + y_w92_c4 >= 0.3215
  lat_lin_w92_c5: x_w92_c5 + y_w92_c5 >= 0.1090
  lat_lin_w92_c6: x_w92_c6 + y_w92_c6 >= 0.3674
  lat_lin_w92_c7: x_w92_c7 + y_w92_c7 >= 0.1302
  lat_lin_w92_c8: x_w92_c8 + y_w92_c8 >= 0.2410
  lat_lin_w92_c9: x_w92_c9 + y_w92_c9 >= 0.4654
  lat_lin_w92_c10: x_w92_c10 + y_w92_c10 >= 0.0005
  lat_lin_w92_c11: x_w92_c11 + y_w92_c11 >= 0.1151
  lat_lin_w92_c12: x_w92_c12 + y_w92_c12 >= 0.0982
  lat_lin_w92_c13: x_w92_c13 + y_w92_c13 >= 0.2132
  lat_lin_w92_c14: x_w92_c14 + y_w92_c14 >= 0.2299
  lat_lin_w92_c15: x_w92_c15 + y_w92_c15 >= 0.1212
  lat_lin_w92_c16: x_w92_c16 + y_w92_c16 >= 0.1878
  lat_lin_w92_c17: x_w92_c17 + y_w92_c17 >= 0.1397
  lat_lin_w92_c18: x_w92_c18 + y_w92_c18 >= 0.3376
  lat_lin_w92_c19: x_w92_c19 + y_w92_c19 >= 0.3968
  lat_lin_w92_c20: x_w92_c20 + y_w92_c20 >= 0.1117
  lat_lin_w92_c21: x_w92_c21 + y_w92_c21 >= 0.1739
  lat_lin_w92_c22: x_w92_c22 + y_w92_c22 >= 0.0137
  lat_lin_w92_c23: x_w92_c23 + y_w92_c23 >= 0.0251
  lat_lin_w92_c24: x_w92_c24 + y_w92_c24 >= 0.2931
  demand_w92: x_w92_c0 + x_w92_c1 + x_w92_c2 + x_w92_c3 + x_w92_c4 + x_w92_c5 + x_w92_c6 + x_w92_c7 + x_w92_c8 + x_w92_c9 + x_w92_c10 + x_w92_c11 + x_w92_c12 + x_w92_c13 + x_w92_c14 + x_w92_c15 + x_w92_c16 + x_w92_c17 + x_w92_c18 + x_w92_c19 + x_w92_c20 + x_w92_c21 + x_w92_c22 + x_w92_c23 + x_w92_c24 = 5
  lat_lin_w93_c0: x_w93_c0 + y_w93_c0 >= 0.4452
  lat_lin_w93_c1: x_w93_c1 + y_w93_c1 >= 0.1538
  lat_lin_w93_c2: x_w93_c2 + y_w93_c2 >= 0.2699
  lat_lin_w93_c3: x_w93_c3 + y_w93_c3 >= 0.0755
  lat_lin_w93_c4: x_w93_c4 + y_w93_c4 >= 0.3057
  lat_lin_w93_c5: x_w93_c5 + y_w93_c5 >= 0.3127
  lat_lin_w93_c6: x_w93_c6 + y_w93_c6 >= 0.2678
  lat_lin_w93_c7: x_w93_c7 + y_w93_c7 >= 0.5667
  lat_lin_w93_c8: x_w93_c8 + y_w93_c8 >= 0.0938
  lat_lin_w93_c9: x_w93_c9 + y_w93_c9 >= 0.0591
  lat_lin_w93_c10: x_w93_c10 + y_w93_c10 >= 0.1469
  lat_lin_w93_c11: x_w93_c11 + y_w93_c11 >= 0.3462
  lat_lin_w93_c12: x_w93_c12 + y_w93_c12 >= 0.1989
  lat_lin_w93_c13: x_w93_c13 + y_w93_c13 >= 0.5182
  lat_lin_w93_c14: x_w93_c14 + y_w93_c14 >= 0.1960
  lat_lin_w93_c15: x_w93_c15 + y_w93_c15 >= 0.5661
  lat_lin_w93_c16: x_w93_c16 + y_w93_c16 >= 0.5058
  lat_lin_w93_c17: x_w93_c17 + y_w93_c17 >= 0.2650
  lat_lin_w93_c18: x_w93_c18 + y_w93_c18 >= 0.6179
  lat_lin_w93_c19: x_w93_c19 + y_w93_c19 >= 0.2571
  lat_lin_w93_c20: x_w93_c20 + y_w93_c20 >= 0.1570
  lat_lin_w93_c21: x_w93_c21 + y_w93_c21 >= 0.1284
  lat_lin_w93_c22: x_w93_c22 + y_w93_c22 >= 0.2613
  lat_lin_w93_c23: x_w93_c23 + y_w93_c23 >= 0.1760
  lat_lin_w93_c24: x_w93_c24 + y_w93_c24 >= 0.1089
  demand_w93: x_w93_c0 + x_w93_c1 + x_w93_c2 + x_w93_c3 + x_w93_c4 + x_w93_c5 + x_w93_c6 + x_w93_c7 + x_w93_c8 + x_w93_c9 + x_w93_c10 + x_w93_c11 + x_w93_c12 + x_w93_c13 + x_w93_c14 + x_w93_c15 + x_w93_c16 + x_w93_c17 + x_w93_c18 + x_w93_c19 + x_w93_c20 + x_w93_c21 + x_w93_c22 + x_w93_c23 + x_w93_c24 = 7
  lat_lin_w94_c0: x_w94_c0 + y_w94_c0 >= 0.5818
  lat_lin_w94_c1: x_w94_c1 + y_w94_c1 >= 0.1410
  lat_lin_w94_c2: x_w94_c2 + y_w94_c2 >= 0.0846
  lat_lin_w94_c3: x_w94_c3 + y_w94_c3 >= 0.5521
  lat_lin_w94_c4: x_w94_c4 + y_w94_c4 >= 0.3883
  lat_lin_w94_c5: x_w94_c5 + y_w94_c5 >= 0.5623
  lat_lin_w94_c6: x_w94_c6 + y_w94_c6 >= 0.4090
  lat_lin_w94_c7: x_w94_c7 + y_w94_c7 >= 0.1215
  lat_lin_w94_c8: x_w94_c8 + y_w94_c8 >= 0.3065
  lat_lin_w94_c9: x_w94_c9 + y_w94_c9 >= 0.2316
  lat_lin_w94_c10: x_w94_c10 + y_w94_c10 >= 0.2259
  lat_lin_w94_c11: x_w94_c11 + y_w94_c11 >= 0.5214
  lat_lin_w94_c12: x_w94_c12 + y_w94_c12 >= 0.5719
  lat_lin_w94_c13: x_w94_c13 + y_w94_c13 >= 0.4913
  lat_lin_w94_c14: x_w94_c14 + y_w94_c14 >= 0.6014
  lat_lin_w94_c15: x_w94_c15 + y_w94_c15 >= 0.0273
  lat_lin_w94_c16: x_w94_c16 + y_w94_c16 >= 0.0868
  lat_lin_w94_c17: x_w94_c17 + y_w94_c17 >= 0.0456
  lat_lin_w94_c18: x_w94_c18 + y_w94_c18 >= 0.0607
  lat_lin_w94_c19: x_w94_c19 + y_w94_c19 >= 0.2764
  lat_lin_w94_c20: x_w94_c20 + y_w94_c20 >= 0.5873
  lat_lin_w94_c21: x_w94_c21 + y_w94_c21 >= 0.6752
  lat_lin_w94_c22: x_w94_c22 + y_w94_c22 >= 0.5708
  lat_lin_w94_c23: x_w94_c23 + y_w94_c23 >= 0.6624
  lat_lin_w94_c24: x_w94_c24 + y_w94_c24 >= 0.2170
  demand_w94: x_w94_c0 + x_w94_c1 + x_w94_c2 + x_w94_c3 + x_w94_c4 + x_w94_c5 + x_w94_c6 + x_w94_c7 + x_w94_c8 + x_w94_c9 + x_w94_c10 + x_w94_c11 + x_w94_c12 + x_w94_c13 + x_w94_c14 + x_w94_c15 + x_w94_c16 + x_w94_c17 + x_w94_c18 + x_w94_c19 + x_w94_c20 + x_w94_c21 + x_w94_c22 + x_w94_c23 + x_w94_c24 = 9
  lat_lin_w95_c0: x_w95_c0 + y_w95_c0 >= 0.2701
  lat_lin_w95_c1: x_w95_c1 + y_w95_c1 >= 0.5143
  lat_lin_w95_c2: x_w95_c2 + y_w95_c2 >= 0.4784
  lat_lin_w95_c3: x_w95_c3 + y_w95_c3 >= 0.3216
  lat_lin_w95_c4: x_w95_c4 + y_w95_c4 >= 0.2479
  lat_lin_w95_c5: x_w95_c5 + y_w95_c5 >= 0.2547
  lat_lin_w95_c6: x_w95_c6 + y_w95_c6 >= 0.4671
  lat_lin_w95_c7: x_w95_c7 + y_w95_c7 >= 0.2772
  lat_lin_w95_c8: x_w95_c8 + y_w95_c8 >= 0.1406
  lat_lin_w95_c9: x_w95_c9 + y_w95_c9 >= 0.1569
  lat_lin_w95_c10: x_w95_c10 + y_w95_c10 >= 0.1991
  lat_lin_w95_c11: x_w95_c11 + y_w95_c11 >= 0.2456
  lat_lin_w95_c12: x_w95_c12 + y_w95_c12 >= 0.5220
  lat_lin_w95_c13: x_w95_c13 + y_w95_c13 >= 0.1885
  lat_lin_w95_c14: x_w95_c14 + y_w95_c14 >= 0.0204
  lat_lin_w95_c15: x_w95_c15 + y_w95_c15 >= 0.5519
  lat_lin_w95_c16: x_w95_c16 + y_w95_c16 >= 0.0807
  lat_lin_w95_c17: x_w95_c17 + y_w95_c17 >= 0.2127
  lat_lin_w95_c18: x_w95_c18 + y_w95_c18 >= 0.4621
  lat_lin_w95_c19: x_w95_c19 + y_w95_c19 >= 0.0854
  lat_lin_w95_c20: x_w95_c20 + y_w95_c20 >= 0.4218
  lat_lin_w95_c21: x_w95_c21 + y_w95_c21 >= 0.0227
  lat_lin_w95_c22: x_w95_c22 + y_w95_c22 >= 0.0972
  lat_lin_w95_c23: x_w95_c23 + y_w95_c23 >= 0.2980
  lat_lin_w95_c24: x_w95_c24 + y_w95_c24 >= 0.4631
  demand_w95: x_w95_c0 + x_w95_c1 + x_w95_c2 + x_w95_c3 + x_w95_c4 + x_w95_c5 + x_w95_c6 + x_w95_c7 + x_w95_c8 + x_w95_c9 + x_w95_c10 + x_w95_c11 + x_w95_c12 + x_w95_c13 + x_w95_c14 + x_w95_c15 + x_w95_c16 + x_w95_c17 + x_w95_c18 + x_w95_c19 + x_w95_c20 + x_w95_c21 + x_w95_c22 + x_w95_c23 + x_w95_c24 = 7
  lat_lin_w96_c0: x_w96_c0 + y_w96_c0 >= 0.2517
  lat_lin_w96_c1: x_w96_c1 + y_w96_c1 >= 0.2353
  lat_lin_w96_c2: x_w96_c2 + y_w96_c2 >= 0.3004
  lat_lin_w96_c3: x_w96_c3 + y_w96_c3 >= 0.3883
  lat_lin_w96_c4: x_w96_c4 + y_w96_c4 >= 0.2349
  lat_lin_w96_c5: x_w96_c5 + y_w96_c5 >= 0.0143
  lat_lin_w96_c6: x_w96_c6 + y_w96_c6 >= 0.2764
  lat_lin_w96_c7: x_w96_c7 + y_w96_c7 >= 0.3580
  lat_lin_w96_c8: x_w96_c8 + y_w96_c8 >= 0.2400
  lat_lin_w96_c9: x_w96_c9 + y_w96_c9 >= 0.3488
  lat_lin_w96_c10: x_w96_c10 + y_w96_c10 >= 0.1518
  lat_lin_w96_c11: x_w96_c11 + y_w96_c11 >= 0.1665
  lat_lin_w96_c12: x_w96_c12 + y_w96_c12 >= 0.3480
  lat_lin_w96_c13: x_w96_c13 + y_w96_c13 >= 0.0662
  lat_lin_w96_c14: x_w96_c14 + y_w96_c14 >= 0.3750
  lat_lin_w96_c15: x_w96_c15 + y_w96_c15 >= 0.0013
  lat_lin_w96_c16: x_w96_c16 + y_w96_c16 >= 0.0413
  lat_lin_w96_c17: x_w96_c17 + y_w96_c17 >= 0.0760
  lat_lin_w96_c18: x_w96_c18 + y_w96_c18 >= 0.3009
  lat_lin_w96_c19: x_w96_c19 + y_w96_c19 >= 0.0405
  lat_lin_w96_c20: x_w96_c20 + y_w96_c20 >= 0.2628
  lat_lin_w96_c21: x_w96_c21 + y_w96_c21 >= 0.0899
  lat_lin_w96_c22: x_w96_c22 + y_w96_c22 >= 0.0966
  lat_lin_w96_c23: x_w96_c23 + y_w96_c23 >= 0.2432
  lat_lin_w96_c24: x_w96_c24 + y_w96_c24 >= 0.0919
  demand_w96: x_w96_c0 + x_w96_c1 + x_w96_c2 + x_w96_c3 + x_w96_c4 + x_w96_c5 + x_w96_c6 + x_w96_c7 + x_w96_c8 + x_w96_c9 + x_w96_c10 + x_w96_c11 + x_w96_c12 + x_w96_c13 + x_w96_c14 + x_w96_c15 + x_w96_c16 + x_w96_c17 + x_w96_c18 + x_w96_c19 + x_w96_c20 + x_w96_c21 + x_w96_c22 + x_w96_c23 + x_w96_c24 = 5
  lat_lin_w97_c0: x_w97_c0 + y_w97_c0 >= 0.0264
  lat_lin_w97_c1: x_w97_c1 + y_w97_c1 >= 0.6245
  lat_lin_w97_c2: x_w97_c2 + y_w97_c2 >= 0.4460
  lat_lin_w97_c3: x_w97_c3 + y_w97_c3 >= 0.6284
  lat_lin_w97_c4: x_w97_c4 + y_w97_c4 >= 0.2352
  lat_lin_w97_c5: x_w97_c5 + y_w97_c5 >= 0.3335
  lat_lin_w97_c6: x_w97_c6 + y_w97_c6 >= 0.7648
  lat_lin_w97_c7: x_w97_c7 + y_w97_c7 >= 0.2959
  lat_lin_w97_c8: x_w97_c8 + y_w97_c8 >= 0.7791
  lat_lin_w97_c9: x_w97_c9 + y_w97_c9 >= 0.7938
  lat_lin_w97_c10: x_w97_c10 + y_w97_c10 >= 0.3158
  lat_lin_w97_c11: x_w97_c11 + y_w97_c11 >= 0.4816
  lat_lin_w97_c12: x_w97_c12 + y_w97_c12 >= 0.0223
  lat_lin_w97_c13: x_w97_c13 + y_w97_c13 >= 0.5229
  lat_lin_w97_c14: x_w97_c14 + y_w97_c14 >= 0.7138
  lat_lin_w97_c15: x_w97_c15 + y_w97_c15 >= 0.5206
  lat_lin_w97_c16: x_w97_c16 + y_w97_c16 >= 0.8450
  lat_lin_w97_c17: x_w97_c17 + y_w97_c17 >= 0.4698
  lat_lin_w97_c18: x_w97_c18 + y_w97_c18 >= 0.8453
  lat_lin_w97_c19: x_w97_c19 + y_w97_c19 >= 0.3860
  lat_lin_w97_c20: x_w97_c20 + y_w97_c20 >= 0.0870
  lat_lin_w97_c21: x_w97_c21 + y_w97_c21 >= 0.6867
  lat_lin_w97_c22: x_w97_c22 + y_w97_c22 >= 0.0637
  lat_lin_w97_c23: x_w97_c23 + y_w97_c23 >= 0.3893
  lat_lin_w97_c24: x_w97_c24 + y_w97_c24 >= 0.7227
  demand_w97: x_w97_c0 + x_w97_c1 + x_w97_c2 + x_w97_c3 + x_w97_c4 + x_w97_c5 + x_w97_c6 + x_w97_c7 + x_w97_c8 + x_w97_c9 + x_w97_c10 + x_w97_c11 + x_w97_c12 + x_w97_c13 + x_w97_c14 + x_w97_c15 + x_w97_c16 + x_w97_c17 + x_w97_c18 + x_w97_c19 + x_w97_c20 + x_w97_c21 + x_w97_c22 + x_w97_c23 + x_w97_c24 = 12
  lat_lin_w98_c0: x_w98_c0 + y_w98_c0 >= 0.1510
  lat_lin_w98_c1: x_w98_c1 + y_w98_c1 >= 0.0092
  lat_lin_w98_c2: x_w98_c2 + y_w98_c2 >= 0.3374
  lat_lin_w98_c3: x_w98_c3 + y_w98_c3 >= 0.0359
  lat_lin_w98_c4: x_w98_c4 + y_w98_c4 >= 0.3820
  lat_lin_w98_c5: x_w98_c5 + y_w98_c5 >= 0.2273
  lat_lin_w98_c6: x_w98_c6 + y_w98_c6 >= 0.0520
  lat_lin_w98_c7: x_w98_c7 + y_w98_c7 >= 0.7180
  lat_lin_w98_c8: x_w98_c8 + y_w98_c8 >= 0.5567
  lat_lin_w98_c9: x_w98_c9 + y_w98_c9 >= 0.2089
  lat_lin_w98_c10: x_w98_c10 + y_w98_c10 >= 0.1422
  lat_lin_w98_c11: x_w98_c11 + y_w98_c11 >= 0.2923
  lat_lin_w98_c12: x_w98_c12 + y_w98_c12 >= 0.1969
  lat_lin_w98_c13: x_w98_c13 + y_w98_c13 >= 0.5205
  lat_lin_w98_c14: x_w98_c14 + y_w98_c14 >= 0.6214
  lat_lin_w98_c15: x_w98_c15 + y_w98_c15 >= 0.3805
  lat_lin_w98_c16: x_w98_c16 + y_w98_c16 >= 0.6648
  lat_lin_w98_c17: x_w98_c17 + y_w98_c17 >= 0.0118
  lat_lin_w98_c18: x_w98_c18 + y_w98_c18 >= 0.6340
  lat_lin_w98_c19: x_w98_c19 + y_w98_c19 >= 0.4316
  lat_lin_w98_c20: x_w98_c20 + y_w98_c20 >= 0.4268
  lat_lin_w98_c21: x_w98_c21 + y_w98_c21 >= 0.5419
  lat_lin_w98_c22: x_w98_c22 + y_w98_c22 >= 0.4085
  lat_lin_w98_c23: x_w98_c23 + y_w98_c23 >= 0.6796
  lat_lin_w98_c24: x_w98_c24 + y_w98_c24 >= 0.3688
  demand_w98: x_w98_c0 + x_w98_c1 + x_w98_c2 + x_w98_c3 + x_w98_c4 + x_w98_c5 + x_w98_c6 + x_w98_c7 + x_w98_c8 + x_w98_c9 + x_w98_c10 + x_w98_c11 + x_w98_c12 + x_w98_c13 + x_w98_c14 + x_w98_c15 + x_w98_c16 + x_w98_c17 + x_w98_c18 + x_w98_c19 + x_w98_c20 + x_w98_c21 + x_w98_c22 + x_w98_c23 + x_w98_c24 = 9
  lat_lin_w99_c0: x_w99_c0 + y_w99_c0 >= 0.9560
  lat_lin_w99_c1: x_w99_c1 + y_w99_c1 >= 0.5656
  lat_lin_w99_c2: x_w99_c2 + y_w99_c2 >= 1.1596
  lat_lin_w99_c3: x_w99_c3 + y_w99_c3 >= 0.6700
  lat_lin_w99_c4: x_w99_c4 + y_w99_c4 >= 0.7629
  lat_lin_w99_c5: x_w99_c5 + y_w99_c5 >= 0.5694
  lat_lin_w99_c6: x_w99_c6 + y_w99_c6 >= 0.6453
  lat_lin_w99_c7: x_w99_c7 + y_w99_c7 >= 0.0199
  lat_lin_w99_c8: x_w99_c8 + y_w99_c8 >= 0.4028
  lat_lin_w99_c9: x_w99_c9 + y_w99_c9 >= 0.7875
  lat_lin_w99_c10: x_w99_c10 + y_w99_c10 >= 0.9054
  lat_lin_w99_c11: x_w99_c11 + y_w99_c11 >= 0.1067
  lat_lin_w99_c12: x_w99_c12 + y_w99_c12 >= 0.1096
  lat_lin_w99_c13: x_w99_c13 + y_w99_c13 >= 1.0355
  lat_lin_w99_c14: x_w99_c14 + y_w99_c14 >= 0.2616
  lat_lin_w99_c15: x_w99_c15 + y_w99_c15 >= 0.4968
  lat_lin_w99_c16: x_w99_c16 + y_w99_c16 >= 0.2758
  lat_lin_w99_c17: x_w99_c17 + y_w99_c17 >= 1.0922
  lat_lin_w99_c18: x_w99_c18 + y_w99_c18 >= 0.4560
  lat_lin_w99_c19: x_w99_c19 + y_w99_c19 >= 0.0396
  lat_lin_w99_c20: x_w99_c20 + y_w99_c20 >= 0.1473
  lat_lin_w99_c21: x_w99_c21 + y_w99_c21 >= 0.0266
  lat_lin_w99_c22: x_w99_c22 + y_w99_c22 >= 0.5003
  lat_lin_w99_c23: x_w99_c23 + y_w99_c23 >= 0.6996
  lat_lin_w99_c24: x_w99_c24 + y_w99_c24 >= 0.3078
  demand_w99: x_w99_c0 + x_w99_c1 + x_w99_c2 + x_w99_c3 + x_w99_c4 + x_w99_c5 + x_w99_c6 + x_w99_c7 + x_w99_c8 + x_w99_c9 + x_w99_c10 + x_w99_c11 + x_w99_c12 + x_w99_c13 + x_w99_c14 + x_w99_c15 + x_w99_c16 + x_w99_c17 + x_w99_c18 + x_w99_c19 + x_w99_c20 + x_w99_c21 + x_w99_c22 + x_w99_c23 + x_w99_c24 = 13
  lat_lin_w100_c0: x_w100_c0 + y_w100_c0 >= 0.2916
  lat_lin_w100_c1: x_w100_c1 + y_w100_c1 >= 0.3590
  lat_lin_w100_c2: x_w100_c2 + y_w100_c2 >= 0.9183
  lat_lin_w100_c3: x_w100_c3 + y_w100_c3 >= 0.8066
  lat_lin_w100_c4: x_w100_c4 + y_w100_c4 >= 0.2789
  lat_lin_w100_c5: x_w100_c5 + y_w100_c5 >= 0.8449
  lat_lin_w100_c6: x_w100_c6 + y_w100_c6 >= 0.2039
  lat_lin_w100_c7: x_w100_c7 + y_w100_c7 >= 0.8031
  lat_lin_w100_c8: x_w100_c8 + y_w100_c8 >= 1.1585
  lat_lin_w100_c9: x_w100_c9 + y_w100_c9 >= 0.8200
  lat_lin_w100_c10: x_w100_c10 + y_w100_c10 >= 1.2351
  lat_lin_w100_c11: x_w100_c11 + y_w100_c11 >= 1.1311
  lat_lin_w100_c12: x_w100_c12 + y_w100_c12 >= 0.2054
  lat_lin_w100_c13: x_w100_c13 + y_w100_c13 >= 0.4257
  lat_lin_w100_c14: x_w100_c14 + y_w100_c14 >= 0.5927
  lat_lin_w100_c15: x_w100_c15 + y_w100_c15 >= 0.0085
  lat_lin_w100_c16: x_w100_c16 + y_w100_c16 >= 0.4760
  lat_lin_w100_c17: x_w100_c17 + y_w100_c17 >= 1.1545
  lat_lin_w100_c18: x_w100_c18 + y_w100_c18 >= 0.0109
  lat_lin_w100_c19: x_w100_c19 + y_w100_c19 >= 0.3883
  lat_lin_w100_c20: x_w100_c20 + y_w100_c20 >= 0.3288
  lat_lin_w100_c21: x_w100_c21 + y_w100_c21 >= 0.1632
  lat_lin_w100_c22: x_w100_c22 + y_w100_c22 >= 0.3672
  lat_lin_w100_c23: x_w100_c23 + y_w100_c23 >= 0.9778
  lat_lin_w100_c24: x_w100_c24 + y_w100_c24 >= 0.0501
  demand_w100: x_w100_c0 + x_w100_c1 + x_w100_c2 + x_w100_c3 + x_w100_c4 + x_w100_c5 + x_w100_c6 + x_w100_c7 + x_w100_c8 + x_w100_c9 + x_w100_c10 + x_w100_c11 + x_w100_c12 + x_w100_c13 + x_w100_c14 + x_w100_c15 + x_w100_c16 + x_w100_c17 + x_w100_c18 + x_w100_c19 + x_w100_c20 + x_w100_c21 + x_w100_c22 + x_w100_c23 + x_w100_c24 = 14
  lat_lin_w101_c0: x_w101_c0 + y_w101_c0 >= 0.2979
  lat_lin_w101_c1: x_w101_c1 + y_w101_c1 >= 0.7919
  lat_lin_w101_c2: x_w101_c2 + y_w101_c2 >= 0.4787
  lat_lin_w101_c3: x_w101_c3 + y_w101_c3 >= 0.7859
  lat_lin_w101_c4: x_w101_c4 + y_w101_c4 >= 0.3326
  lat_lin_w101_c5: x_w101_c5 + y_w101_c5 >= 0.4321
  lat_lin_w101_c6: x_w101_c6 + y_w101_c6 >= 0.0413
  lat_lin_w101_c7: x_w101_c7 + y_w101_c7 >= 0.0091
  lat_lin_w101_c8: x_w101_c8 + y_w101_c8 >= 0.3650
  lat_lin_w101_c9: x_w101_c9 + y_w101_c9 >= 0.0776
  lat_lin_w101_c10: x_w101_c10 + y_w101_c10 >= 0.2711
  lat_lin_w101_c11: x_w101_c11 + y_w101_c11 >= 0.6298
  lat_lin_w101_c12: x_w101_c12 + y_w101_c12 >= 0.2223
  lat_lin_w101_c13: x_w101_c13 + y_w101_c13 >= 0.4768
  lat_lin_w101_c14: x_w101_c14 + y_w101_c14 >= 0.5209
  lat_lin_w101_c15: x_w101_c15 + y_w101_c15 >= 0.6584
  lat_lin_w101_c16: x_w101_c16 + y_w101_c16 >= 0.6469
  lat_lin_w101_c17: x_w101_c17 + y_w101_c17 >= 0.2771
  lat_lin_w101_c18: x_w101_c18 + y_w101_c18 >= 0.3324
  lat_lin_w101_c19: x_w101_c19 + y_w101_c19 >= 0.4707
  lat_lin_w101_c20: x_w101_c20 + y_w101_c20 >= 0.5414
  lat_lin_w101_c21: x_w101_c21 + y_w101_c21 >= 0.5584
  lat_lin_w101_c22: x_w101_c22 + y_w101_c22 >= 0.7374
  lat_lin_w101_c23: x_w101_c23 + y_w101_c23 >= 0.5127
  lat_lin_w101_c24: x_w101_c24 + y_w101_c24 >= 0.5316
  demand_w101: x_w101_c0 + x_w101_c1 + x_w101_c2 + x_w101_c3 + x_w101_c4 + x_w101_c5 + x_w101_c6 + x_w101_c7 + x_w101_c8 + x_w101_c9 + x_w101_c10 + x_w101_c11 + x_w101_c12 + x_w101_c13 + x_w101_c14 + x_w101_c15 + x_w101_c16 + x_w101_c17 + x_w101_c18 + x_w101_c19 + x_w101_c20 + x_w101_c21 + x_w101_c22 + x_w101_c23 + x_w101_c24 = 11
  lat_lin_w102_c0: x_w102_c0 + y_w102_c0 >= 0.2545
  lat_lin_w102_c1: x_w102_c1 + y_w102_c1 >= 0.2109
  lat_lin_w102_c2: x_w102_c2 + y_w102_c2 >= 0.2772
  lat_lin_w102_c3: x_w102_c3 + y_w102_c3 >= 0.4818
  lat_lin_w102_c4: x_w102_c4 + y_w102_c4 >= 0.3451
  lat_lin_w102_c5: x_w102_c5 + y_w102_c5 >= 0.7336
  lat_lin_w102_c6: x_w102_c6 + y_w102_c6 >= 0.3082
  lat_lin_w102_c7: x_w102_c7 + y_w102_c7 >= 0.2370
  lat_lin_w102_c8: x_w102_c8 + y_w102_c8 >= 0.7790
  lat_lin_w102_c9: x_w102_c9 + y_w102_c9 >= 0.7645
  lat_lin_w102_c10: x_w102_c10 + y_w102_c10 >= 0.3062
  lat_lin_w102_c11: x_w102_c11 + y_w102_c11 >= 0.3541
  lat_lin_w102_c12: x_w102_c12 + y_w102_c12 >= 0.5927
  lat_lin_w102_c13: x_w102_c13 + y_w102_c13 >= 0.3108
  lat_lin_w102_c14: x_w102_c14 + y_w102_c14 >= 0.4682
  lat_lin_w102_c15: x_w102_c15 + y_w102_c15 >= 0.7801
  lat_lin_w102_c16: x_w102_c16 + y_w102_c16 >= 0.5792
  lat_lin_w102_c17: x_w102_c17 + y_w102_c17 >= 0.1558
  lat_lin_w102_c18: x_w102_c18 + y_w102_c18 >= 0.6427
  lat_lin_w102_c19: x_w102_c19 + y_w102_c19 >= 0.5184
  lat_lin_w102_c20: x_w102_c20 + y_w102_c20 >= 0.4163
  lat_lin_w102_c21: x_w102_c21 + y_w102_c21 >= 0.1777
  lat_lin_w102_c22: x_w102_c22 + y_w102_c22 >= 0.0964
  lat_lin_w102_c23: x_w102_c23 + y_w102_c23 >= 0.6618
  lat_lin_w102_c24: x_w102_c24 + y_w102_c24 >= 0.5480
  demand_w102: x_w102_c0 + x_w102_c1 + x_w102_c2 + x_w102_c3 + x_w102_c4 + x_w102_c5 + x_w102_c6 + x_w102_c7 + x_w102_c8 + x_w102_c9 + x_w102_c10 + x_w102_c11 + x_w102_c12 + x_w102_c13 + x_w102_c14 + x_w102_c15 + x_w102_c16 + x_w102_c17 + x_w102_c18 + x_w102_c19 + x_w102_c20 + x_w102_c21 + x_w102_c22 + x_w102_c23 + x_w102_c24 = 11
  lat_lin_w103_c0: x_w103_c0 + y_w103_c0 >= 0.6397
  lat_lin_w103_c1: x_w103_c1 + y_w103_c1 >= 0.7491
  lat_lin_w103_c2: x_w103_c2 + y_w103_c2 >= 0.1055
  lat_lin_w103_c3: x_w103_c3 + y_w103_c3 >= 0.6007
  lat_lin_w103_c4: x_w103_c4 + y_w103_c4 >= 0.2086
  lat_lin_w103_c5: x_w103_c5 + y_w103_c5 >= 0.0044
  lat_lin_w103_c6: x_w103_c6 + y_w103_c6 >= 0.1769
  lat_lin_w103_c7: x_w103_c7 + y_w103_c7 >= 0.0896
  lat_lin_w103_c8: x_w103_c8 + y_w103_c8 >= 0.0300
  lat_lin_w103_c9: x_w103_c9 + y_w103_c9 >= 0.1982
  lat_lin_w103_c10: x_w103_c10 + y_w103_c10 >= 0.6708
  lat_lin_w103_c11: x_w103_c11 + y_w103_c11 >= 0.1857
  lat_lin_w103_c12: x_w103_c12 + y_w103_c12 >= 0.3878
  lat_lin_w103_c13: x_w103_c13 + y_w103_c13 >= 0.6849
  lat_lin_w103_c14: x_w103_c14 + y_w103_c14 >= 0.7430
  lat_lin_w103_c15: x_w103_c15 + y_w103_c15 >= 0.1155
  lat_lin_w103_c16: x_w103_c16 + y_w103_c16 >= 0.0019
  lat_lin_w103_c17: x_w103_c17 + y_w103_c17 >= 0.4903
  lat_lin_w103_c18: x_w103_c18 + y_w103_c18 >= 0.5844
  lat_lin_w103_c19: x_w103_c19 + y_w103_c19 >= 0.4741
  lat_lin_w103_c20: x_w103_c20 + y_w103_c20 >= 0.3995
  lat_lin_w103_c21: x_w103_c21 + y_w103_c21 >= 0.5249
  lat_lin_w103_c22: x_w103_c22 + y_w103_c22 >= 0.5076
  lat_lin_w103_c23: x_w103_c23 + y_w103_c23 >= 0.0790
  lat_lin_w103_c24: x_w103_c24 + y_w103_c24 >= 0.3480
  demand_w103: x_w103_c0 + x_w103_c1 + x_w103_c2 + x_w103_c3 + x_w103_c4 + x_w103_c5 + x_w103_c6 + x_w103_c7 + x_w103_c8 + x_w103_c9 + x_w103_c10 + x_w103_c11 + x_w103_c12 + x_w103_c13 + x_w103_c14 + x_w103_c15 + x_w103_c16 + x_w103_c17 + x_w103_c18 + x_w103_c19 + x_w103_c20 + x_w103_c21 + x_w103_c22 + x_w103_c23 + x_w103_c24 = 9
  lat_lin_w104_c0: x_w104_c0 + y_w104_c0 >= 0.2328
  lat_lin_w104_c1: x_w104_c1 + y_w104_c1 >= 0.0590
  lat_lin_w104_c2: x_w104_c2 + y_w104_c2 >= 0.0141
  lat_lin_w104_c3: x_w104_c3 + y_w104_c3 >= 0.3060
  lat_lin_w104_c4: x_w104_c4 + y_w104_c4 >= 0.0575
  lat_lin_w104_c5: x_w104_c5 + y_w104_c5 >= 0.3670
  lat_lin_w104_c6: x_w104_c6 + y_w104_c6 >= 0.3509
  lat_lin_w104_c7: x_w104_c7 + y_w104_c7 >= 0.3446
  lat_lin_w104_c8: x_w104_c8 + y_w104_c8 >= 0.1606
  lat_lin_w104_c9: x_w104_c9 + y_w104_c9 >= 0.3316
  lat_lin_w104_c10: x_w104_c10 + y_w104_c10 >= 0.0316
  lat_lin_w104_c11: x_w104_c11 + y_w104_c11 >= 0.1176
  lat_lin_w104_c12: x_w104_c12 + y_w104_c12 >= 0.1851
  lat_lin_w104_c13: x_w104_c13 + y_w104_c13 >= 0.2523
  lat_lin_w104_c14: x_w104_c14 + y_w104_c14 >= 0.0465
  lat_lin_w104_c15: x_w104_c15 + y_w104_c15 >= 0.2240
  lat_lin_w104_c16: x_w104_c16 + y_w104_c16 >= 0.1135
  lat_lin_w104_c17: x_w104_c17 + y_w104_c17 >= 0.3478
  lat_lin_w104_c18: x_w104_c18 + y_w104_c18 >= 0.0299
  lat_lin_w104_c19: x_w104_c19 + y_w104_c19 >= 0.3650
  lat_lin_w104_c20: x_w104_c20 + y_w104_c20 >= 0.1117
  lat_lin_w104_c21: x_w104_c21 + y_w104_c21 >= 0.2520
  lat_lin_w104_c22: x_w104_c22 + y_w104_c22 >= 0.3616
  lat_lin_w104_c23: x_w104_c23 + y_w104_c23 >= 0.0614
  lat_lin_w104_c24: x_w104_c24 + y_w104_c24 >= 0.2761
  demand_w104: x_w104_c0 + x_w104_c1 + x_w104_c2 + x_w104_c3 + x_w104_c4 + x_w104_c5 + x_w104_c6 + x_w104_c7 + x_w104_c8 + x_w104_c9 + x_w104_c10 + x_w104_c11 + x_w104_c12 + x_w104_c13 + x_w104_c14 + x_w104_c15 + x_w104_c16 + x_w104_c17 + x_w104_c18 + x_w104_c19 + x_w104_c20 + x_w104_c21 + x_w104_c22 + x_w104_c23 + x_w104_c24 = 5
  lat_lin_w105_c0: x_w105_c0 + y_w105_c0 >= 0.0034
  lat_lin_w105_c1: x_w105_c1 + y_w105_c1 >= 0.3084
  lat_lin_w105_c2: x_w105_c2 + y_w105_c2 >= 0.1462
  lat_lin_w105_c3: x_w105_c3 + y_w105_c3 >= 0.0308
  lat_lin_w105_c4: x_w105_c4 + y_w105_c4 >= 0.0498
  lat_lin_w105_c5: x_w105_c5 + y_w105_c5 >= 0.3219
  lat_lin_w105_c6: x_w105_c6 + y_w105_c6 >= 0.0332
  lat_lin_w105_c7: x_w105_c7 + y_w105_c7 >= 0.3057
  lat_lin_w105_c8: x_w105_c8 + y_w105_c8 >= 0.1753
  lat_lin_w105_c9: x_w105_c9 + y_w105_c9 >= 0.0681
  lat_lin_w105_c10: x_w105_c10 + y_w105_c10 >= 0.2964
  lat_lin_w105_c11: x_w105_c11 + y_w105_c11 >= 0.2598
  lat_lin_w105_c12: x_w105_c12 + y_w105_c12 >= 0.1328
  lat_lin_w105_c13: x_w105_c13 + y_w105_c13 >= 0.3346
  lat_lin_w105_c14: x_w105_c14 + y_w105_c14 >= 0.3247
  lat_lin_w105_c15: x_w105_c15 + y_w105_c15 >= 0.1672
  lat_lin_w105_c16: x_w105_c16 + y_w105_c16 >= 0.3098
  lat_lin_w105_c17: x_w105_c17 + y_w105_c17 >= 0.3220
  lat_lin_w105_c18: x_w105_c18 + y_w105_c18 >= 0.1548
  lat_lin_w105_c19: x_w105_c19 + y_w105_c19 >= 0.0735
  lat_lin_w105_c20: x_w105_c20 + y_w105_c20 >= 0.3304
  lat_lin_w105_c21: x_w105_c21 + y_w105_c21 >= 0.3357
  lat_lin_w105_c22: x_w105_c22 + y_w105_c22 >= 0.1589
  lat_lin_w105_c23: x_w105_c23 + y_w105_c23 >= 0.1696
  lat_lin_w105_c24: x_w105_c24 + y_w105_c24 >= 0.1871
  demand_w105: x_w105_c0 + x_w105_c1 + x_w105_c2 + x_w105_c3 + x_w105_c4 + x_w105_c5 + x_w105_c6 + x_w105_c7 + x_w105_c8 + x_w105_c9 + x_w105_c10 + x_w105_c11 + x_w105_c12 + x_w105_c13 + x_w105_c14 + x_w105_c15 + x_w105_c16 + x_w105_c17 + x_w105_c18 + x_w105_c19 + x_w105_c20 + x_w105_c21 + x_w105_c22 + x_w105_c23 + x_w105_c24 = 5
  lat_lin_w106_c0: x_w106_c0 + y_w106_c0 >= 0.4908
  lat_lin_w106_c1: x_w106_c1 + y_w106_c1 >= 0.3235
  lat_lin_w106_c2: x_w106_c2 + y_w106_c2 >= 0.1304
  lat_lin_w106_c3: x_w106_c3 + y_w106_c3 >= 0.5370
  lat_lin_w106_c4: x_w106_c4 + y_w106_c4 >= 0.5347
  lat_lin_w106_c5: x_w106_c5 + y_w106_c5 >= 0.4033
  lat_lin_w106_c6: x_w106_c6 + y_w106_c6 >= 0.3910
  lat_lin_w106_c7: x_w106_c7 + y_w106_c7 >= 0.0203
  lat_lin_w106_c8: x_w106_c8 + y_w106_c8 >= 0.0314
  lat_lin_w106_c9: x_w106_c9 + y_w106_c9 >= 0.2420
  lat_lin_w106_c10: x_w106_c10 + y_w106_c10 >= 0.0175
  lat_lin_w106_c11: x_w106_c11 + y_w106_c11 >= 0.0424
  lat_lin_w106_c12: x_w106_c12 + y_w106_c12 >= 0.4681
  lat_lin_w106_c13: x_w106_c13 + y_w106_c13 >= 0.2146
  lat_lin_w106_c14: x_w106_c14 + y_w106_c14 >= 0.5715
  lat_lin_w106_c15: x_w106_c15 + y_w106_c15 >= 0.1802
  lat_lin_w106_c16: x_w106_c16 + y_w106_c16 >= 0.0860
  lat_lin_w106_c17: x_w106_c17 + y_w106_c17 >= 0.1019
  lat_lin_w106_c18: x_w106_c18 + y_w106_c18 >= 0.5878
  lat_lin_w106_c19: x_w106_c19 + y_w106_c19 >= 0.4623
  lat_lin_w106_c20: x_w106_c20 + y_w106_c20 >= 0.3418
  lat_lin_w106_c21: x_w106_c21 + y_w106_c21 >= 0.1800
  lat_lin_w106_c22: x_w106_c22 + y_w106_c22 >= 0.4648
  lat_lin_w106_c23: x_w106_c23 + y_w106_c23 >= 0.1239
  lat_lin_w106_c24: x_w106_c24 + y_w106_c24 >= 0.0526
  demand_w106: x_w106_c0 + x_w106_c1 + x_w106_c2 + x_w106_c3 + x_w106_c4 + x_w106_c5 + x_w106_c6 + x_w106_c7 + x_w106_c8 + x_w106_c9 + x_w106_c10 + x_w106_c11 + x_w106_c12 + x_w106_c13 + x_w106_c14 + x_w106_c15 + x_w106_c16 + x_w106_c17 + x_w106_c18 + x_w106_c19 + x_w106_c20 + x_w106_c21 + x_w106_c22 + x_w106_c23 + x_w106_c24 = 7
  lat_lin_w107_c0: x_w107_c0 + y_w107_c0 >= 0.0266
  lat_lin_w107_c1: x_w107_c1 + y_w107_c1 >= 0.0146
  lat_lin_w107_c2: x_w107_c2 + y_w107_c2 >= 0.1900
  lat_lin_w107_c3: x_w107_c3 + y_w107_c3 >= 0.0754
  lat_lin_w107_c4: x_w107_c4 + y_w107_c4 >= 0.0015
  lat_lin_w107_c5: x_w107_c5 + y_w107_c5 >= 0.2263
  lat_lin_w107_c6: x_w107_c6 + y_w107_c6 >= 0.1593
  lat_lin_w107_c7: x_w107_c7 + y_w107_c7 >= 0.1025
  lat_lin_w107_c8: x_w107_c8 + y_w107_c8 >= 0.1213
  lat_lin_w107_c9: x_w107_c9 + y_w107_c9 >= 0.2243
  lat_lin_w107_c10: x_w107_c10 + y_w107_c10 >= 0.0526
  lat_lin_w107_c11: x_w107_c11 + y_w107_c11 >= 0.2444
  lat_lin_w107_c12: x_w107_c12 + y_w107_c12 >= 0.1556
  lat_lin_w107_c13: x_w107_c13 + y_w107_c13 >= 0.1623
  lat_lin_w107_c14: x_w107_c14 + y_w107_c14 >= 0.1677
  lat_lin_w107_c15: x_w107_c15 + y_w107_c15 >= 0.2076
  lat_lin_w107_c16: x_w107_c16 + y_w107_c16 >= 0.1392
  lat_lin_w107_c17: x_w107_c17 + y_w107_c17 >= 0.0239
  lat_lin_w107_c18: x_w107_c18 + y_w107_c18 >= 0.1954
  lat_lin_w107_c19: x_w107_c19 + y_w107_c19 >= 0.0658
  lat_lin_w107_c20: x_w107_c20 + y_w107_c20 >= 0.0701
  lat_lin_w107_c21: x_w107_c21 + y_w107_c21 >= 0.0270
  lat_lin_w107_c22: x_w107_c22 + y_w107_c22 >= 0.0145
  lat_lin_w107_c23: x_w107_c23 + y_w107_c23 >= 0.1410
  lat_lin_w107_c24: x_w107_c24 + y_w107_c24 >= 0.1909
  demand_w107: x_w107_c0 + x_w107_c1 + x_w107_c2 + x_w107_c3 + x_w107_c4 + x_w107_c5 + x_w107_c6 + x_w107_c7 + x_w107_c8 + x_w107_c9 + x_w107_c10 + x_w107_c11 + x_w107_c12 + x_w107_c13 + x_w107_c14 + x_w107_c15 + x_w107_c16 + x_w107_c17 + x_w107_c18 + x_w107_c19 + x_w107_c20 + x_w107_c21 + x_w107_c22 + x_w107_c23 + x_w107_c24 = 3
  lat_lin_w108_c0: x_w108_c0 + y_w108_c0 >= 0.5691
  lat_lin_w108_c1: x_w108_c1 + y_w108_c1 >= 0.4656
  lat_lin_w108_c2: x_w108_c2 + y_w108_c2 >= 0.4732
  lat_lin_w108_c3: x_w108_c3 + y_w108_c3 >= 0.2150
  lat_lin_w108_c4: x_w108_c4 + y_w108_c4 >= 0.2973
  lat_lin_w108_c5: x_w108_c5 + y_w108_c5 >= 0.3160
  lat_lin_w108_c6: x_w108_c6 + y_w108_c6 >= 0.3402
  lat_lin_w108_c7: x_w108_c7 + y_w108_c7 >= 0.0882
  lat_lin_w108_c8: x_w108_c8 + y_w108_c8 >= 0.2673
  lat_lin_w108_c9: x_w108_c9 + y_w108_c9 >= 0.4706
  lat_lin_w108_c10: x_w108_c10 + y_w108_c10 >= 0.2989
  lat_lin_w108_c11: x_w108_c11 + y_w108_c11 >= 0.3588
  lat_lin_w108_c12: x_w108_c12 + y_w108_c12 >= 0.0267
  lat_lin_w108_c13: x_w108_c13 + y_w108_c13 >= 0.5864
  lat_lin_w108_c14: x_w108_c14 + y_w108_c14 >= 0.5360
  lat_lin_w108_c15: x_w108_c15 + y_w108_c15 >= 0.2793
  lat_lin_w108_c16: x_w108_c16 + y_w108_c16 >= 0.1548
  lat_lin_w108_c17: x_w108_c17 + y_w108_c17 >= 0.3738
  lat_lin_w108_c18: x_w108_c18 + y_w108_c18 >= 0.3334
  lat_lin_w108_c19: x_w108_c19 + y_w108_c19 >= 0.2990
  lat_lin_w108_c20: x_w108_c20 + y_w108_c20 >= 0.4072
  lat_lin_w108_c21: x_w108_c21 + y_w108_c21 >= 0.3961
  lat_lin_w108_c22: x_w108_c22 + y_w108_c22 >= 0.5640
  lat_lin_w108_c23: x_w108_c23 + y_w108_c23 >= 0.3373
  lat_lin_w108_c24: x_w108_c24 + y_w108_c24 >= 0.5459
  demand_w108: x_w108_c0 + x_w108_c1 + x_w108_c2 + x_w108_c3 + x_w108_c4 + x_w108_c5 + x_w108_c6 + x_w108_c7 + x_w108_c8 + x_w108_c9 + x_w108_c10 + x_w108_c11 + x_w108_c12 + x_w108_c13 + x_w108_c14 + x_w108_c15 + x_w108_c16 + x_w108_c17 + x_w108_c18 + x_w108_c19 + x_w108_c20 + x_w108_c21 + x_w108_c22 + x_w108_c23 + x_w108_c24 = 9
  lat_lin_w109_c0: x_w109_c0 + y_w109_c0 >= 0.6208
  lat_lin_w109_c1: x_w109_c1 + y_w109_c1 >= 0.4252
  lat_lin_w109_c2: x_w109_c2 + y_w109_c2 >= 0.4821
  lat_lin_w109_c3: x_w109_c3 + y_w109_c3 >= 0.5235
  lat_lin_w109_c4: x_w109_c4 + y_w109_c4 >= 0.3897
  lat_lin_w109_c5: x_w109_c5 + y_w109_c5 >= 0.4125
  lat_lin_w109_c6: x_w109_c6 + y_w109_c6 >= 0.1432
  lat_lin_w109_c7: x_w109_c7 + y_w109_c7 >= 0.1834
  lat_lin_w109_c8: x_w109_c8 + y_w109_c8 >= 0.4475
  lat_lin_w109_c9: x_w109_c9 + y_w109_c9 >= 0.7007
  lat_lin_w109_c10: x_w109_c10 + y_w109_c10 >= 0.1172
  lat_lin_w109_c11: x_w109_c11 + y_w109_c11 >= 0.1438
  lat_lin_w109_c12: x_w109_c12 + y_w109_c12 >= 0.0773
  lat_lin_w109_c13: x_w109_c13 + y_w109_c13 >= 0.7255
  lat_lin_w109_c14: x_w109_c14 + y_w109_c14 >= 0.3700
  lat_lin_w109_c15: x_w109_c15 + y_w109_c15 >= 0.7222
  lat_lin_w109_c16: x_w109_c16 + y_w109_c16 >= 0.6815
  lat_lin_w109_c17: x_w109_c17 + y_w109_c17 >= 0.0325
  lat_lin_w109_c18: x_w109_c18 + y_w109_c18 >= 0.0002
  lat_lin_w109_c19: x_w109_c19 + y_w109_c19 >= 0.2122
  lat_lin_w109_c20: x_w109_c20 + y_w109_c20 >= 0.3117
  lat_lin_w109_c21: x_w109_c21 + y_w109_c21 >= 0.4695
  lat_lin_w109_c22: x_w109_c22 + y_w109_c22 >= 0.3105
  lat_lin_w109_c23: x_w109_c23 + y_w109_c23 >= 0.0248
  lat_lin_w109_c24: x_w109_c24 + y_w109_c24 >= 0.4726
  demand_w109: x_w109_c0 + x_w109_c1 + x_w109_c2 + x_w109_c3 + x_w109_c4 + x_w109_c5 + x_w109_c6 + x_w109_c7 + x_w109_c8 + x_w109_c9 + x_w109_c10 + x_w109_c11 + x_w109_c12 + x_w109_c13 + x_w109_c14 + x_w109_c15 + x_w109_c16 + x_w109_c17 + x_w109_c18 + x_w109_c19 + x_w109_c20 + x_w109_c21 + x_w109_c22 + x_w109_c23 + x_w109_c24 = 9
  lat_lin_w110_c0: x_w110_c0 + y_w110_c0 >= 0.0046
  lat_lin_w110_c1: x_w110_c1 + y_w110_c1 >= 0.3837
  lat_lin_w110_c2: x_w110_c2 + y_w110_c2 >= 0.4937
  lat_lin_w110_c3: x_w110_c3 + y_w110_c3 >= 0.5727
  lat_lin_w110_c4: x_w110_c4 + y_w110_c4 >= 0.4815
  lat_lin_w110_c5: x_w110_c5 + y_w110_c5 >= 0.4744
  lat_lin_w110_c6: x_w110_c6 + y_w110_c6 >= 0.5427
  lat_lin_w110_c7: x_w110_c7 + y_w110_c7 >= 0.1784
  lat_lin_w110_c8: x_w110_c8 + y_w110_c8 >= 0.5425
  lat_lin_w110_c9: x_w110_c9 + y_w110_c9 >= 0.0313
  lat_lin_w110_c10: x_w110_c10 + y_w110_c10 >= 0.4409
  lat_lin_w110_c11: x_w110_c11 + y_w110_c11 >= 0.5360
  lat_lin_w110_c12: x_w110_c12 + y_w110_c12 >= 0.5587
  lat_lin_w110_c13: x_w110_c13 + y_w110_c13 >= 0.3492
  lat_lin_w110_c14: x_w110_c14 + y_w110_c14 >= 0.4200
  lat_lin_w110_c15: x_w110_c15 + y_w110_c15 >= 0.1787
  lat_lin_w110_c16: x_w110_c16 + y_w110_c16 >= 0.5188
  lat_lin_w110_c17: x_w110_c17 + y_w110_c17 >= 0.5448
  lat_lin_w110_c18: x_w110_c18 + y_w110_c18 >= 0.2133
  lat_lin_w110_c19: x_w110_c19 + y_w110_c19 >= 0.1701
  lat_lin_w110_c20: x_w110_c20 + y_w110_c20 >= 0.4045
  lat_lin_w110_c21: x_w110_c21 + y_w110_c21 >= 0.5763
  lat_lin_w110_c22: x_w110_c22 + y_w110_c22 >= 0.3145
  lat_lin_w110_c23: x_w110_c23 + y_w110_c23 >= 0.0572
  lat_lin_w110_c24: x_w110_c24 + y_w110_c24 >= 0.0117
  demand_w110: x_w110_c0 + x_w110_c1 + x_w110_c2 + x_w110_c3 + x_w110_c4 + x_w110_c5 + x_w110_c6 + x_w110_c7 + x_w110_c8 + x_w110_c9 + x_w110_c10 + x_w110_c11 + x_w110_c12 + x_w110_c13 + x_w110_c14 + x_w110_c15 + x_w110_c16 + x_w110_c17 + x_w110_c18 + x_w110_c19 + x_w110_c20 + x_w110_c21 + x_w110_c22 + x_w110_c23 + x_w110_c24 = 9
  lat_lin_w111_c0: x_w111_c0 + y_w111_c0 >= 0.1967
  lat_lin_w111_c1: x_w111_c1 + y_w111_c1 >= 0.0093
  lat_lin_w111_c2: x_w111_c2 + y_w111_c2 >= 0.2255
  lat_lin_w111_c3: x_w111_c3 + y_w111_c3 >= 0.0134
  lat_lin_w111_c4: x_w111_c4 + y_w111_c4 >= 0.0241
  lat_lin_w111_c5: x_w111_c5 + y_w111_c5 >= 0.0727
  lat_lin_w111_c6: x_w111_c6 + y_w111_c6 >= 0.1271
  lat_lin_w111_c7: x_w111_c7 + y_w111_c7 >= 0.4075
  lat_lin_w111_c8: x_w111_c8 + y_w111_c8 >= 0.1833
  lat_lin_w111_c9: x_w111_c9 + y_w111_c9 >= 0.2136
  lat_lin_w111_c10: x_w111_c10 + y_w111_c10 >= 0.3785
  lat_lin_w111_c11: x_w111_c11 + y_w111_c11 >= 0.0160
  lat_lin_w111_c12: x_w111_c12 + y_w111_c12 >= 0.2107
  lat_lin_w111_c13: x_w111_c13 + y_w111_c13 >= 0.4401
  lat_lin_w111_c14: x_w111_c14 + y_w111_c14 >= 0.2088
  lat_lin_w111_c15: x_w111_c15 + y_w111_c15 >= 0.0309
  lat_lin_w111_c16: x_w111_c16 + y_w111_c16 >= 0.0679
  lat_lin_w111_c17: x_w111_c17 + y_w111_c17 >= 0.0291
  lat_lin_w111_c18: x_w111_c18 + y_w111_c18 >= 0.4048
  lat_lin_w111_c19: x_w111_c19 + y_w111_c19 >= 0.2982
  lat_lin_w111_c20: x_w111_c20 + y_w111_c20 >= 0.3234
  lat_lin_w111_c21: x_w111_c21 + y_w111_c21 >= 0.3498
  lat_lin_w111_c22: x_w111_c22 + y_w111_c22 >= 0.3465
  lat_lin_w111_c23: x_w111_c23 + y_w111_c23 >= 0.2136
  lat_lin_w111_c24: x_w111_c24 + y_w111_c24 >= 0.2085
  demand_w111: x_w111_c0 + x_w111_c1 + x_w111_c2 + x_w111_c3 + x_w111_c4 + x_w111_c5 + x_w111_c6 + x_w111_c7 + x_w111_c8 + x_w111_c9 + x_w111_c10 + x_w111_c11 + x_w111_c12 + x_w111_c13 + x_w111_c14 + x_w111_c15 + x_w111_c16 + x_w111_c17 + x_w111_c18 + x_w111_c19 + x_w111_c20 + x_w111_c21 + x_w111_c22 + x_w111_c23 + x_w111_c24 = 5
  lat_lin_w112_c0: x_w112_c0 + y_w112_c0 >= 0.0985
  lat_lin_w112_c1: x_w112_c1 + y_w112_c1 >= 0.9186
  lat_lin_w112_c2: x_w112_c2 + y_w112_c2 >= 0.7176
  lat_lin_w112_c3: x_w112_c3 + y_w112_c3 >= 0.6663
  lat_lin_w112_c4: x_w112_c4 + y_w112_c4 >= 0.9237
  lat_lin_w112_c5: x_w112_c5 + y_w112_c5 >= 0.2409
  lat_lin_w112_c6: x_w112_c6 + y_w112_c6 >= 0.2843
  lat_lin_w112_c7: x_w112_c7 + y_w112_c7 >= 0.3039
  lat_lin_w112_c8: x_w112_c8 + y_w112_c8 >= 0.1038
  lat_lin_w112_c9: x_w112_c9 + y_w112_c9 >= 0.3655
  lat_lin_w112_c10: x_w112_c10 + y_w112_c10 >= 0.1637
  lat_lin_w112_c11: x_w112_c11 + y_w112_c11 >= 0.2492
  lat_lin_w112_c12: x_w112_c12 + y_w112_c12 >= 0.9732
  lat_lin_w112_c13: x_w112_c13 + y_w112_c13 >= 0.9752
  lat_lin_w112_c14: x_w112_c14 + y_w112_c14 >= 1.0699
  lat_lin_w112_c15: x_w112_c15 + y_w112_c15 >= 0.9434
  lat_lin_w112_c16: x_w112_c16 + y_w112_c16 >= 0.9934
  lat_lin_w112_c17: x_w112_c17 + y_w112_c17 >= 0.9223
  lat_lin_w112_c18: x_w112_c18 + y_w112_c18 >= 1.0120
  lat_lin_w112_c19: x_w112_c19 + y_w112_c19 >= 0.1891
  lat_lin_w112_c20: x_w112_c20 + y_w112_c20 >= 0.0999
  lat_lin_w112_c21: x_w112_c21 + y_w112_c21 >= 0.9172
  lat_lin_w112_c22: x_w112_c22 + y_w112_c22 >= 0.9938
  lat_lin_w112_c23: x_w112_c23 + y_w112_c23 >= 0.1649
  lat_lin_w112_c24: x_w112_c24 + y_w112_c24 >= 0.7095
  demand_w112: x_w112_c0 + x_w112_c1 + x_w112_c2 + x_w112_c3 + x_w112_c4 + x_w112_c5 + x_w112_c6 + x_w112_c7 + x_w112_c8 + x_w112_c9 + x_w112_c10 + x_w112_c11 + x_w112_c12 + x_w112_c13 + x_w112_c14 + x_w112_c15 + x_w112_c16 + x_w112_c17 + x_w112_c18 + x_w112_c19 + x_w112_c20 + x_w112_c21 + x_w112_c22 + x_w112_c23 + x_w112_c24 = 15
  lat_lin_w113_c0: x_w113_c0 + y_w113_c0 >= 0.4572
  lat_lin_w113_c1: x_w113_c1 + y_w113_c1 >= 0.2527
  lat_lin_w113_c2: x_w113_c2 + y_w113_c2 >= 0.5123
  lat_lin_w113_c3: x_w113_c3 + y_w113_c3 >= 0.8867
  lat_lin_w113_c4: x_w113_c4 + y_w113_c4 >= 0.6857
  lat_lin_w113_c5: x_w113_c5 + y_w113_c5 >= 0.6345
  lat_lin_w113_c6: x_w113_c6 + y_w113_c6 >= 0.5799
  lat_lin_w113_c7: x_w113_c7 + y_w113_c7 >= 0.7700
  lat_lin_w113_c8: x_w113_c8 + y_w113_c8 >= 1.1410
  lat_lin_w113_c9: x_w113_c9 + y_w113_c9 >= 0.0989
  lat_lin_w113_c10: x_w113_c10 + y_w113_c10 >= 0.7133
  lat_lin_w113_c11: x_w113_c11 + y_w113_c11 >= 0.7143
  lat_lin_w113_c12: x_w113_c12 + y_w113_c12 >= 1.1611
  lat_lin_w113_c13: x_w113_c13 + y_w113_c13 >= 0.4808
  lat_lin_w113_c14: x_w113_c14 + y_w113_c14 >= 0.1013
  lat_lin_w113_c15: x_w113_c15 + y_w113_c15 >= 0.2384
  lat_lin_w113_c16: x_w113_c16 + y_w113_c16 >= 0.4780
  lat_lin_w113_c17: x_w113_c17 + y_w113_c17 >= 0.5031
  lat_lin_w113_c18: x_w113_c18 + y_w113_c18 >= 0.3734
  lat_lin_w113_c19: x_w113_c19 + y_w113_c19 >= 0.8063
  lat_lin_w113_c20: x_w113_c20 + y_w113_c20 >= 0.0018
  lat_lin_w113_c21: x_w113_c21 + y_w113_c21 >= 1.1149
  lat_lin_w113_c22: x_w113_c22 + y_w113_c22 >= 1.2198
  lat_lin_w113_c23: x_w113_c23 + y_w113_c23 >= 0.0239
  lat_lin_w113_c24: x_w113_c24 + y_w113_c24 >= 0.0506
  demand_w113: x_w113_c0 + x_w113_c1 + x_w113_c2 + x_w113_c3 + x_w113_c4 + x_w113_c5 + x_w113_c6 + x_w113_c7 + x_w113_c8 + x_w113_c9 + x_w113_c10 + x_w113_c11 + x_w113_c12 + x_w113_c13 + x_w113_c14 + x_w113_c15 + x_w113_c16 + x_w113_c17 + x_w113_c18 + x_w113_c19 + x_w113_c20 + x_w113_c21 + x_w113_c22 + x_w113_c23 + x_w113_c24 = 14
  lat_lin_w114_c0: x_w114_c0 + y_w114_c0 >= 0.2175
  lat_lin_w114_c1: x_w114_c1 + y_w114_c1 >= 0.1865
  lat_lin_w114_c2: x_w114_c2 + y_w114_c2 >= 0.1164
  lat_lin_w114_c3: x_w114_c3 + y_w114_c3 >= 0.0045
  lat_lin_w114_c4: x_w114_c4 + y_w114_c4 >= 0.2156
  lat_lin_w114_c5: x_w114_c5 + y_w114_c5 >= 0.0280
  lat_lin_w114_c6: x_w114_c6 + y_w114_c6 >= 0.2040
  lat_lin_w114_c7: x_w114_c7 + y_w114_c7 >= 0.2344
  lat_lin_w114_c8: x_w114_c8 + y_w114_c8 >= 0.2188
  lat_lin_w114_c9: x_w114_c9 + y_w114_c9 >= 0.0448
  lat_lin_w114_c10: x_w114_c10 + y_w114_c10 >= 0.1602
  lat_lin_w114_c11: x_w114_c11 + y_w114_c11 >= 0.0565
  lat_lin_w114_c12: x_w114_c12 + y_w114_c12 >= 0.2079
  lat_lin_w114_c13: x_w114_c13 + y_w114_c13 >= 0.0789
  lat_lin_w114_c14: x_w114_c14 + y_w114_c14 >= 0.0253
  lat_lin_w114_c15: x_w114_c15 + y_w114_c15 >= 0.0308
  lat_lin_w114_c16: x_w114_c16 + y_w114_c16 >= 0.1366
  lat_lin_w114_c17: x_w114_c17 + y_w114_c17 >= 0.2102
  lat_lin_w114_c18: x_w114_c18 + y_w114_c18 >= 0.1004
  lat_lin_w114_c19: x_w114_c19 + y_w114_c19 >= 0.0250
  lat_lin_w114_c20: x_w114_c20 + y_w114_c20 >= 0.0918
  lat_lin_w114_c21: x_w114_c21 + y_w114_c21 >= 0.0268
  lat_lin_w114_c22: x_w114_c22 + y_w114_c22 >= 0.2921
  lat_lin_w114_c23: x_w114_c23 + y_w114_c23 >= 0.0787
  lat_lin_w114_c24: x_w114_c24 + y_w114_c24 >= 0.0084
  demand_w114: x_w114_c0 + x_w114_c1 + x_w114_c2 + x_w114_c3 + x_w114_c4 + x_w114_c5 + x_w114_c6 + x_w114_c7 + x_w114_c8 + x_w114_c9 + x_w114_c10 + x_w114_c11 + x_w114_c12 + x_w114_c13 + x_w114_c14 + x_w114_c15 + x_w114_c16 + x_w114_c17 + x_w114_c18 + x_w114_c19 + x_w114_c20 + x_w114_c21 + x_w114_c22 + x_w114_c23 + x_w114_c24 = 3
  lat_lin_w115_c0: x_w115_c0 + y_w115_c0 >= 0.7178
  lat_lin_w115_c1: x_w115_c1 + y_w115_c1 >= 0.0303
  lat_lin_w115_c2: x_w115_c2 + y_w115_c2 >= 0.3425
  lat_lin_w115_c3: x_w115_c3 + y_w115_c3 >= 0.3791
  lat_lin_w115_c4: x_w115_c4 + y_w115_c4 >= 0.4046
  lat_lin_w115_c5: x_w115_c5 + y_w115_c5 >= 0.7002
  lat_lin_w115_c6: x_w115_c6 + y_w115_c6 >= 0.1272
  lat_lin_w115_c7: x_w115_c7 + y_w115_c7 >= 0.2125
  lat_lin_w115_c8: x_w115_c8 + y_w115_c8 >= 0.0698
  lat_lin_w115_c9: x_w115_c9 + y_w115_c9 >= 0.6114
  lat_lin_w115_c10: x_w115_c10 + y_w115_c10 >= 0.0368
  lat_lin_w115_c11: x_w115_c11 + y_w115_c11 >= 0.6402
  lat_lin_w115_c12: x_w115_c12 + y_w115_c12 >= 0.5529
  lat_lin_w115_c13: x_w115_c13 + y_w115_c13 >= 0.6874
  lat_lin_w115_c14: x_w115_c14 + y_w115_c14 >= 0.4244
  lat_lin_w115_c15: x_w115_c15 + y_w115_c15 >= 0.8147
  lat_lin_w115_c16: x_w115_c16 + y_w115_c16 >= 0.7289
  lat_lin_w115_c17: x_w115_c17 + y_w115_c17 >= 0.0356
  lat_lin_w115_c18: x_w115_c18 + y_w115_c18 >= 0.3848
  lat_lin_w115_c19: x_w115_c19 + y_w115_c19 >= 0.4046
  lat_lin_w115_c20: x_w115_c20 + y_w115_c20 >= 0.4130
  lat_lin_w115_c21: x_w115_c21 + y_w115_c21 >= 0.2701
  lat_lin_w115_c22: x_w115_c22 + y_w115_c22 >= 0.3717
  lat_lin_w115_c23: x_w115_c23 + y_w115_c23 >= 0.3201
  lat_lin_w115_c24: x_w115_c24 + y_w115_c24 >= 0.3194
  demand_w115: x_w115_c0 + x_w115_c1 + x_w115_c2 + x_w115_c3 + x_w115_c4 + x_w115_c5 + x_w115_c6 + x_w115_c7 + x_w115_c8 + x_w115_c9 + x_w115_c10 + x_w115_c11 + x_w115_c12 + x_w115_c13 + x_w115_c14 + x_w115_c15 + x_w115_c16 + x_w115_c17 + x_w115_c18 + x_w115_c19 + x_w115_c20 + x_w115_c21 + x_w115_c22 + x_w115_c23 + x_w115_c24 = 10
  lat_lin_w116_c0: x_w116_c0 + y_w116_c0 >= 0.1831
  lat_lin_w116_c1: x_w116_c1 + y_w116_c1 >= 0.2080
  lat_lin_w116_c2: x_w116_c2 + y_w116_c2 >= 0.0935
  lat_lin_w116_c3: x_w116_c3 + y_w116_c3 >= 0.0437
  lat_lin_w116_c4: x_w116_c4 + y_w116_c4 >= 0.2703
  lat_lin_w116_c5: x_w116_c5 + y_w116_c5 >= 0.0250
  lat_lin_w116_c6: x_w116_c6 + y_w116_c6 >= 0.0646
  lat_lin_w116_c7: x_w116_c7 + y_w116_c7 >= 0.2181
  lat_lin_w116_c8: x_w116_c8 + y_w116_c8 >= 0.1857
  lat_lin_w116_c9: x_w116_c9 + y_w116_c9 >= 0.2534
  lat_lin_w116_c10: x_w116_c10 + y_w116_c10 >= 0.1402
  lat_lin_w116_c11: x_w116_c11 + y_w116_c11 >= 0.2645
  lat_lin_w116_c12: x_w116_c12 + y_w116_c12 >= 0.2240
  lat_lin_w116_c13: x_w116_c13 + y_w116_c13 >= 0.0987
  lat_lin_w116_c14: x_w116_c14 + y_w116_c14 >= 0.1010
  lat_lin_w116_c15: x_w116_c15 + y_w116_c15 >= 0.1241
  lat_lin_w116_c16: x_w116_c16 + y_w116_c16 >= 0.1686
  lat_lin_w116_c17: x_w116_c17 + y_w116_c17 >= 0.1491
  lat_lin_w116_c18: x_w116_c18 + y_w116_c18 >= 0.2730
  lat_lin_w116_c19: x_w116_c19 + y_w116_c19 >= 0.1174
  lat_lin_w116_c20: x_w116_c20 + y_w116_c20 >= 0.0479
  lat_lin_w116_c21: x_w116_c21 + y_w116_c21 >= 0.0527
  lat_lin_w116_c22: x_w116_c22 + y_w116_c22 >= 0.2739
  lat_lin_w116_c23: x_w116_c23 + y_w116_c23 >= 0.1683
  lat_lin_w116_c24: x_w116_c24 + y_w116_c24 >= 0.2512
  demand_w116: x_w116_c0 + x_w116_c1 + x_w116_c2 + x_w116_c3 + x_w116_c4 + x_w116_c5 + x_w116_c6 + x_w116_c7 + x_w116_c8 + x_w116_c9 + x_w116_c10 + x_w116_c11 + x_w116_c12 + x_w116_c13 + x_w116_c14 + x_w116_c15 + x_w116_c16 + x_w116_c17 + x_w116_c18 + x_w116_c19 + x_w116_c20 + x_w116_c21 + x_w116_c22 + x_w116_c23 + x_w116_c24 = 4
  lat_lin_w117_c0: x_w117_c0 + y_w117_c0 >= 0.7677
  lat_lin_w117_c1: x_w117_c1 + y_w117_c1 >= 0.5492
  lat_lin_w117_c2: x_w117_c2 + y_w117_c2 >= 0.7181
  lat_lin_w117_c3: x_w117_c3 + y_w117_c3 >= 0.9131
  lat_lin_w117_c4: x_w117_c4 + y_w117_c4 >= 1.0026
  lat_lin_w117_c5: x_w117_c5 + y_w117_c5 >= 0.8657
  lat_lin_w117_c6: x_w117_c6 + y_w117_c6 >= 0.1559
  lat_lin_w117_c7: x_w117_c7 + y_w117_c7 >= 1.0463
  lat_lin_w117_c8: x_w117_c8 + y_w117_c8 >= 0.1619
  lat_lin_w117_c9: x_w117_c9 + y_w117_c9 >= 0.1488
  lat_lin_w117_c10: x_w117_c10 + y_w117_c10 >= 0.4243
  lat_lin_w117_c11: x_w117_c11 + y_w117_c11 >= 0.3348
  lat_lin_w117_c12: x_w117_c12 + y_w117_c12 >= 0.9227
  lat_lin_w117_c13: x_w117_c13 + y_w117_c13 >= 0.5571
  lat_lin_w117_c14: x_w117_c14 + y_w117_c14 >= 0.0430
  lat_lin_w117_c15: x_w117_c15 + y_w117_c15 >= 1.0322
  lat_lin_w117_c16: x_w117_c16 + y_w117_c16 >= 0.4876
  lat_lin_w117_c17: x_w117_c17 + y_w117_c17 >= 1.0378
  lat_lin_w117_c18: x_w117_c18 + y_w117_c18 >= 0.7375
  lat_lin_w117_c19: x_w117_c19 + y_w117_c19 >= 0.3365
  lat_lin_w117_c20: x_w117_c20 + y_w117_c20 >= 1.0216
  lat_lin_w117_c21: x_w117_c21 + y_w117_c21 >= 0.3238
  lat_lin_w117_c22: x_w117_c22 + y_w117_c22 >= 0.0605
  lat_lin_w117_c23: x_w117_c23 + y_w117_c23 >= 0.7754
  lat_lin_w117_c24: x_w117_c24 + y_w117_c24 >= 0.5760
  demand_w117: x_w117_c0 + x_w117_c1 + x_w117_c2 + x_w117_c3 + x_w117_c4 + x_w117_c5 + x_w117_c6 + x_w117_c7 + x_w117_c8 + x_w117_c9 + x_w117_c10 + x_w117_c11 + x_w117_c12 + x_w117_c13 + x_w117_c14 + x_w117_c15 + x_w117_c16 + x_w117_c17 + x_w117_c18 + x_w117_c19 + x_w117_c20 + x_w117_c21 + x_w117_c22 + x_w117_c23 + x_w117_c24 = 15
  lat_lin_w118_c0: x_w118_c0 + y_w118_c0 >= 0.1546
  lat_lin_w118_c1: x_w118_c1 + y_w118_c1 >= 0.4933
  lat_lin_w118_c2: x_w118_c2 + y_w118_c2 >= 0.4644
  lat_lin_w118_c3: x_w118_c3 + y_w118_c3 >= 0.4494
  lat_lin_w118_c4: x_w118_c4 + y_w118_c4 >= 0.0071
  lat_lin_w118_c5: x_w118_c5 + y_w118_c5 >= 0.3724
  lat_lin_w118_c6: x_w118_c6 + y_w118_c6 >= 0.3049
  lat_lin_w118_c7: x_w118_c7 + y_w118_c7 >= 0.1520
  lat_lin_w118_c8: x_w118_c8 + y_w118_c8 >= 0.3699
  lat_lin_w118_c9: x_w118_c9 + y_w118_c9 >= 0.2381
  lat_lin_w118_c10: x_w118_c10 + y_w118_c10 >= 0.4133
  lat_lin_w118_c11: x_w118_c11 + y_w118_c11 >= 0.1767
  lat_lin_w118_c12: x_w118_c12 + y_w118_c12 >= 0.3467
  lat_lin_w118_c13: x_w118_c13 + y_w118_c13 >= 0.3687
  lat_lin_w118_c14: x_w118_c14 + y_w118_c14 >= 0.4936
  lat_lin_w118_c15: x_w118_c15 + y_w118_c15 >= 0.1043
  lat_lin_w118_c16: x_w118_c16 + y_w118_c16 >= 0.3650
  lat_lin_w118_c17: x_w118_c17 + y_w118_c17 >= 0.1634
  lat_lin_w118_c18: x_w118_c18 + y_w118_c18 >= 0.3578
  lat_lin_w118_c19: x_w118_c19 + y_w118_c19 >= 0.3345
  lat_lin_w118_c20: x_w118_c20 + y_w118_c20 >= 0.4749
  lat_lin_w118_c21: x_w118_c21 + y_w118_c21 >= 0.4975
  lat_lin_w118_c22: x_w118_c22 + y_w118_c22 >= 0.1120
  lat_lin_w118_c23: x_w118_c23 + y_w118_c23 >= 0.3501
  lat_lin_w118_c24: x_w118_c24 + y_w118_c24 >= 0.4353
  demand_w118: x_w118_c0 + x_w118_c1 + x_w118_c2 + x_w118_c3 + x_w118_c4 + x_w118_c5 + x_w118_c6 + x_w118_c7 + x_w118_c8 + x_w118_c9 + x_w118_c10 + x_w118_c11 + x_w118_c12 + x_w118_c13 + x_w118_c14 + x_w118_c15 + x_w118_c16 + x_w118_c17 + x_w118_c18 + x_w118_c19 + x_w118_c20 + x_w118_c21 + x_w118_c22 + x_w118_c23 + x_w118_c24 = 8
  lat_lin_w119_c0: x_w119_c0 + y_w119_c0 >= 0.5394
  lat_lin_w119_c1: x_w119_c1 + y_w119_c1 >= 0.5294
  lat_lin_w119_c2: x_w119_c2 + y_w119_c2 >= 0.4109
  lat_lin_w119_c3: x_w119_c3 + y_w119_c3 >= 0.3788
  lat_lin_w119_c4: x_w119_c4 + y_w119_c4 >= 0.2685
  lat_lin_w119_c5: x_w119_c5 + y_w119_c5 >= 0.5904
  lat_lin_w119_c6: x_w119_c6 + y_w119_c6 >= 0.2202
  lat_lin_w119_c7: x_w119_c7 + y_w119_c7 >= 0.0119
  lat_lin_w119_c8: x_w119_c8 + y_w119_c8 >= 0.0347
  lat_lin_w119_c9: x_w119_c9 + y_w119_c9 >= 0.3720
  lat_lin_w119_c10: x_w119_c10 + y_w119_c10 >= 0.0464
  lat_lin_w119_c11: x_w119_c11 + y_w119_c11 >= 0.0658
  lat_lin_w119_c12: x_w119_c12 + y_w119_c12 >= 0.3383
  lat_lin_w119_c13: x_w119_c13 + y_w119_c13 >= 0.1213
  lat_lin_w119_c14: x_w119_c14 + y_w119_c14 >= 0.2347
  lat_lin_w119_c15: x_w119_c15 + y_w119_c15 >= 0.0661
  lat_lin_w119_c16: x_w119_c16 + y_w119_c16 >= 0.4165
  lat_lin_w119_c17: x_w119_c17 + y_w119_c17 >= 0.5842
  lat_lin_w119_c18: x_w119_c18 + y_w119_c18 >= 0.5948
  lat_lin_w119_c19: x_w119_c19 + y_w119_c19 >= 0.2137
  lat_lin_w119_c20: x_w119_c20 + y_w119_c20 >= 0.5704
  lat_lin_w119_c21: x_w119_c21 + y_w119_c21 >= 0.5191
  lat_lin_w119_c22: x_w119_c22 + y_w119_c22 >= 0.3625
  lat_lin_w119_c23: x_w119_c23 + y_w119_c23 >= 0.0072
  lat_lin_w119_c24: x_w119_c24 + y_w119_c24 >= 0.5031
  demand_w119: x_w119_c0 + x_w119_c1 + x_w119_c2 + x_w119_c3 + x_w119_c4 + x_w119_c5 + x_w119_c6 + x_w119_c7 + x_w119_c8 + x_w119_c9 + x_w119_c10 + x_w119_c11 + x_w119_c12 + x_w119_c13 + x_w119_c14 + x_w119_c15 + x_w119_c16 + x_w119_c17 + x_w119_c18 + x_w119_c19 + x_w119_c20 + x_w119_c21 + x_w119_c22 + x_w119_c23 + x_w119_c24 = 8
  lat_lin_w120_c0: x_w120_c0 + y_w120_c0 >= 0.9351
  lat_lin_w120_c1: x_w120_c1 + y_w120_c1 >= 0.4601
  lat_lin_w120_c2: x_w120_c2 + y_w120_c2 >= 0.6952
  lat_lin_w120_c3: x_w120_c3 + y_w120_c3 >= 0.5640
  lat_lin_w120_c4: x_w120_c4 + y_w120_c4 >= 0.7789
  lat_lin_w120_c5: x_w120_c5 + y_w120_c5 >= 1.0103
  lat_lin_w120_c6: x_w120_c6 + y_w120_c6 >= 0.0213
  lat_lin_w120_c7: x_w120_c7 + y_w120_c7 >= 0.7717
  lat_lin_w120_c8: x_w120_c8 + y_w120_c8 >= 0.3749
  lat_lin_w120_c9: x_w120_c9 + y_w120_c9 >= 0.6597
  lat_lin_w120_c10: x_w120_c10 + y_w120_c10 >= 0.7854
  lat_lin_w120_c11: x_w120_c11 + y_w120_c11 >= 0.7554
  lat_lin_w120_c12: x_w120_c12 + y_w120_c12 >= 0.1906
  lat_lin_w120_c13: x_w120_c13 + y_w120_c13 >= 0.4614
  lat_lin_w120_c14: x_w120_c14 + y_w120_c14 >= 0.9310
  lat_lin_w120_c15: x_w120_c15 + y_w120_c15 >= 1.0388
  lat_lin_w120_c16: x_w120_c16 + y_w120_c16 >= 0.7394
  lat_lin_w120_c17: x_w120_c17 + y_w120_c17 >= 0.7198
  lat_lin_w120_c18: x_w120_c18 + y_w120_c18 >= 0.0296
  lat_lin_w120_c19: x_w120_c19 + y_w120_c19 >= 0.1795
  lat_lin_w120_c20: x_w120_c20 + y_w120_c20 >= 0.1511
  lat_lin_w120_c21: x_w120_c21 + y_w120_c21 >= 0.4460
  lat_lin_w120_c22: x_w120_c22 + y_w120_c22 >= 1.0581
  lat_lin_w120_c23: x_w120_c23 + y_w120_c23 >= 0.2127
  lat_lin_w120_c24: x_w120_c24 + y_w120_c24 >= 1.0299
  demand_w120: x_w120_c0 + x_w120_c1 + x_w120_c2 + x_w120_c3 + x_w120_c4 + x_w120_c5 + x_w120_c6 + x_w120_c7 + x_w120_c8 + x_w120_c9 + x_w120_c10 + x_w120_c11 + x_w120_c12 + x_w120_c13 + x_w120_c14 + x_w120_c15 + x_w120_c16 + x_w120_c17 + x_w120_c18 + x_w120_c19 + x_w120_c20 + x_w120_c21 + x_w120_c22 + x_w120_c23 + x_w120_c24 = 15
  lat_lin_w121_c0: x_w121_c0 + y_w121_c0 >= 0.1716
  lat_lin_w121_c1: x_w121_c1 + y_w121_c1 >= 0.5410
  lat_lin_w121_c2: x_w121_c2 + y_w121_c2 >= 0.4337
  lat_lin_w121_c3: x_w121_c3 + y_w121_c3 >= 0.3214
  lat_lin_w121_c4: x_w121_c4 + y_w121_c4 >= 0.4116
  lat_lin_w121_c5: x_w121_c5 + y_w121_c5 >= 0.2260
  lat_lin_w121_c6: x_w121_c6 + y_w121_c6 >= 0.0922
  lat_lin_w121_c7: x_w121_c7 + y_w121_c7 >= 0.0749
  lat_lin_w121_c8: x_w121_c8 + y_w121_c8 >= 0.0390
  lat_lin_w121_c9: x_w121_c9 + y_w121_c9 >= 0.3508
  lat_lin_w121_c10: x_w121_c10 + y_w121_c10 >= 0.1538
  lat_lin_w121_c11: x_w121_c11 + y_w121_c11 >= 0.3353
  lat_lin_w121_c12: x_w121_c12 + y_w121_c12 >= 0.5222
  lat_lin_w121_c13: x_w121_c13 + y_w121_c13 >= 0.1439
  lat_lin_w121_c14: x_w121_c14 + y_w121_c14 >= 0.5757
  lat_lin_w121_c15: x_w121_c15 + y_w121_c15 >= 0.0716
  lat_lin_w121_c16: x_w121_c16 + y_w121_c16 >= 0.2724
  lat_lin_w121_c17: x_w121_c17 + y_w121_c17 >= 0.4430
  lat_lin_w121_c18: x_w121_c18 + y_w121_c18 >= 0.0916
  lat_lin_w121_c19: x_w121_c19 + y_w121_c19 >= 0.1526
  lat_lin_w121_c20: x_w121_c20 + y_w121_c20 >= 0.3484
  lat_lin_w121_c21: x_w121_c21 + y_w121_c21 >= 0.3693
  lat_lin_w121_c22: x_w121_c22 + y_w121_c22 >= 0.4233
  lat_lin_w121_c23: x_w121_c23 + y_w121_c23 >= 0.2407
  lat_lin_w121_c24: x_w121_c24 + y_w121_c24 >= 0.1940
  demand_w121: x_w121_c0 + x_w121_c1 + x_w121_c2 + x_w121_c3 + x_w121_c4 + x_w121_c5 + x_w121_c6 + x_w121_c7 + x_w121_c8 + x_w121_c9 + x_w121_c10 + x_w121_c11 + x_w121_c12 + x_w121_c13 + x_w121_c14 + x_w121_c15 + x_w121_c16 + x_w121_c17 + x_w121_c18 + x_w121_c19 + x_w121_c20 + x_w121_c21 + x_w121_c22 + x_w121_c23 + x_w121_c24 = 7
  lat_lin_w122_c0: x_w122_c0 + y_w122_c0 >= 0.4547
  lat_lin_w122_c1: x_w122_c1 + y_w122_c1 >= 0.0425
  lat_lin_w122_c2: x_w122_c2 + y_w122_c2 >= 0.4059
  lat_lin_w122_c3: x_w122_c3 + y_w122_c3 >= 0.4273
  lat_lin_w122_c4: x_w122_c4 + y_w122_c4 >= 0.3788
  lat_lin_w122_c5: x_w122_c5 + y_w122_c5 >= 0.1453
  lat_lin_w122_c6: x_w122_c6 + y_w122_c6 >= 0.0392
  lat_lin_w122_c7: x_w122_c7 + y_w122_c7 >= 0.0151
  lat_lin_w122_c8: x_w122_c8 + y_w122_c8 >= 0.4303
  lat_lin_w122_c9: x_w122_c9 + y_w122_c9 >= 0.2189
  lat_lin_w122_c10: x_w122_c10 + y_w122_c10 >= 0.1314
  lat_lin_w122_c11: x_w122_c11 + y_w122_c11 >= 0.1277
  lat_lin_w122_c12: x_w122_c12 + y_w122_c12 >= 0.3535
  lat_lin_w122_c13: x_w122_c13 + y_w122_c13 >= 0.4619
  lat_lin_w122_c14: x_w122_c14 + y_w122_c14 >= 0.1064
  lat_lin_w122_c15: x_w122_c15 + y_w122_c15 >= 0.2744
  lat_lin_w122_c16: x_w122_c16 + y_w122_c16 >= 0.2783
  lat_lin_w122_c17: x_w122_c17 + y_w122_c17 >= 0.2749
  lat_lin_w122_c18: x_w122_c18 + y_w122_c18 >= 0.2430
  lat_lin_w122_c19: x_w122_c19 + y_w122_c19 >= 0.4998
  lat_lin_w122_c20: x_w122_c20 + y_w122_c20 >= 0.2864
  lat_lin_w122_c21: x_w122_c21 + y_w122_c21 >= 0.0840
  lat_lin_w122_c22: x_w122_c22 + y_w122_c22 >= 0.2114
  lat_lin_w122_c23: x_w122_c23 + y_w122_c23 >= 0.0643
  lat_lin_w122_c24: x_w122_c24 + y_w122_c24 >= 0.0447
  demand_w122: x_w122_c0 + x_w122_c1 + x_w122_c2 + x_w122_c3 + x_w122_c4 + x_w122_c5 + x_w122_c6 + x_w122_c7 + x_w122_c8 + x_w122_c9 + x_w122_c10 + x_w122_c11 + x_w122_c12 + x_w122_c13 + x_w122_c14 + x_w122_c15 + x_w122_c16 + x_w122_c17 + x_w122_c18 + x_w122_c19 + x_w122_c20 + x_w122_c21 + x_w122_c22 + x_w122_c23 + x_w122_c24 = 6
  lat_lin_w123_c0: x_w123_c0 + y_w123_c0 >= 0.6882
  lat_lin_w123_c1: x_w123_c1 + y_w123_c1 >= 0.5830
  lat_lin_w123_c2: x_w123_c2 + y_w123_c2 >= 0.5960
  lat_lin_w123_c3: x_w123_c3 + y_w123_c3 >= 1.0491
  lat_lin_w123_c4: x_w123_c4 + y_w123_c4 >= 0.6507
  lat_lin_w123_c5: x_w123_c5 + y_w123_c5 >= 0.1015
  lat_lin_w123_c6: x_w123_c6 + y_w123_c6 >= 0.6487
  lat_lin_w123_c7: x_w123_c7 + y_w123_c7 >= 0.1898
  lat_lin_w123_c8: x_w123_c8 + y_w123_c8 >= 0.0914
  lat_lin_w123_c9: x_w123_c9 + y_w123_c9 >= 0.1403
  lat_lin_w123_c10: x_w123_c10 + y_w123_c10 >= 0.2462
  lat_lin_w123_c11: x_w123_c11 + y_w123_c11 >= 0.7844
  lat_lin_w123_c12: x_w123_c12 + y_w123_c12 >= 0.0070
  lat_lin_w123_c13: x_w123_c13 + y_w123_c13 >= 0.2357
  lat_lin_w123_c14: x_w123_c14 + y_w123_c14 >= 0.1501
  lat_lin_w123_c15: x_w123_c15 + y_w123_c15 >= 0.2002
  lat_lin_w123_c16: x_w123_c16 + y_w123_c16 >= 0.1410
  lat_lin_w123_c17: x_w123_c17 + y_w123_c17 >= 0.4274
  lat_lin_w123_c18: x_w123_c18 + y_w123_c18 >= 0.8592
  lat_lin_w123_c19: x_w123_c19 + y_w123_c19 >= 0.8391
  lat_lin_w123_c20: x_w123_c20 + y_w123_c20 >= 0.5517
  lat_lin_w123_c21: x_w123_c21 + y_w123_c21 >= 0.9704
  lat_lin_w123_c22: x_w123_c22 + y_w123_c22 >= 0.5832
  lat_lin_w123_c23: x_w123_c23 + y_w123_c23 >= 0.5725
  lat_lin_w123_c24: x_w123_c24 + y_w123_c24 >= 0.6930
  demand_w123: x_w123_c0 + x_w123_c1 + x_w123_c2 + x_w123_c3 + x_w123_c4 + x_w123_c5 + x_w123_c6 + x_w123_c7 + x_w123_c8 + x_w123_c9 + x_w123_c10 + x_w123_c11 + x_w123_c12 + x_w123_c13 + x_w123_c14 + x_w123_c15 + x_w123_c16 + x_w123_c17 + x_w123_c18 + x_w123_c19 + x_w123_c20 + x_w123_c21 + x_w123_c22 + x_w123_c23 + x_w123_c24 = 12
  lat_lin_w124_c0: x_w124_c0 + y_w124_c0 >= 0.4633
  lat_lin_w124_c1: x_w124_c1 + y_w124_c1 >= 0.6893
  lat_lin_w124_c2: x_w124_c2 + y_w124_c2 >= 0.3370
  lat_lin_w124_c3: x_w124_c3 + y_w124_c3 >= 0.6845
  lat_lin_w124_c4: x_w124_c4 + y_w124_c4 >= 0.2085
  lat_lin_w124_c5: x_w124_c5 + y_w124_c5 >= 0.4369
  lat_lin_w124_c6: x_w124_c6 + y_w124_c6 >= 0.3500
  lat_lin_w124_c7: x_w124_c7 + y_w124_c7 >= 0.4021
  lat_lin_w124_c8: x_w124_c8 + y_w124_c8 >= 0.2392
  lat_lin_w124_c9: x_w124_c9 + y_w124_c9 >= 0.3407
  lat_lin_w124_c10: x_w124_c10 + y_w124_c10 >= 0.7153
  lat_lin_w124_c11: x_w124_c11 + y_w124_c11 >= 0.0159
  lat_lin_w124_c12: x_w124_c12 + y_w124_c12 >= 0.3098
  lat_lin_w124_c13: x_w124_c13 + y_w124_c13 >= 0.2207
  lat_lin_w124_c14: x_w124_c14 + y_w124_c14 >= 0.1224
  lat_lin_w124_c15: x_w124_c15 + y_w124_c15 >= 0.1285
  lat_lin_w124_c16: x_w124_c16 + y_w124_c16 >= 0.5284
  lat_lin_w124_c17: x_w124_c17 + y_w124_c17 >= 0.5215
  lat_lin_w124_c18: x_w124_c18 + y_w124_c18 >= 0.4104
  lat_lin_w124_c19: x_w124_c19 + y_w124_c19 >= 0.1244
  lat_lin_w124_c20: x_w124_c20 + y_w124_c20 >= 0.7590
  lat_lin_w124_c21: x_w124_c21 + y_w124_c21 >= 0.5263
  lat_lin_w124_c22: x_w124_c22 + y_w124_c22 >= 0.6956
  lat_lin_w124_c23: x_w124_c23 + y_w124_c23 >= 0.0431
  lat_lin_w124_c24: x_w124_c24 + y_w124_c24 >= 0.7272
  demand_w124: x_w124_c0 + x_w124_c1 + x_w124_c2 + x_w124_c3 + x_w124_c4 + x_w124_c5 + x_w124_c6 + x_w124_c7 + x_w124_c8 + x_w124_c9 + x_w124_c10 + x_w124_c11 + x_w124_c12 + x_w124_c13 + x_w124_c14 + x_w124_c15 + x_w124_c16 + x_w124_c17 + x_w124_c18 + x_w124_c19 + x_w124_c20 + x_w124_c21 + x_w124_c22 + x_w124_c23 + x_w124_c24 = 10
  lat_lin_w125_c0: x_w125_c0 + y_w125_c0 >= 0.6772
  lat_lin_w125_c1: x_w125_c1 + y_w125_c1 >= 0.7918
  lat_lin_w125_c2: x_w125_c2 + y_w125_c2 >= 0.2590
  lat_lin_w125_c3: x_w125_c3 + y_w125_c3 >= 0.9081
  lat_lin_w125_c4: x_w125_c4 + y_w125_c4 >= 0.5002
  lat_lin_w125_c5: x_w125_c5 + y_w125_c5 >= 0.0256
  lat_lin_w125_c6: x_w125_c6 + y_w125_c6 >= 0.3218
  lat_lin_w125_c7: x_w125_c7 + y_w125_c7 >= 0.6031
  lat_lin_w125_c8: x_w125_c8 + y_w125_c8 >= 0.8792
  lat_lin_w125_c9: x_w125_c9 + y_w125_c9 >= 0.2577
  lat_lin_w125_c10: x_w125_c10 + y_w125_c10 >= 0.4635
  lat_lin_w125_c11: x_w125_c11 + y_w125_c11 >= 0.5709
  lat_lin_w125_c12: x_w125_c12 + y_w125_c12 >= 0.3998
  lat_lin_w125_c13: x_w125_c13 + y_w125_c13 >= 0.7497
  lat_lin_w125_c14: x_w125_c14 + y_w125_c14 >= 0.6984
  lat_lin_w125_c15: x_w125_c15 + y_w125_c15 >= 0.0925
  lat_lin_w125_c16: x_w125_c16 + y_w125_c16 >= 0.9104
  lat_lin_w125_c17: x_w125_c17 + y_w125_c17 >= 0.6219
  lat_lin_w125_c18: x_w125_c18 + y_w125_c18 >= 0.4687
  lat_lin_w125_c19: x_w125_c19 + y_w125_c19 >= 0.5416
  lat_lin_w125_c20: x_w125_c20 + y_w125_c20 >= 0.8618
  lat_lin_w125_c21: x_w125_c21 + y_w125_c21 >= 0.7394
  lat_lin_w125_c22: x_w125_c22 + y_w125_c22 >= 0.5151
  lat_lin_w125_c23: x_w125_c23 + y_w125_c23 >= 0.6432
  lat_lin_w125_c24: x_w125_c24 + y_w125_c24 >= 0.4994
  demand_w125: x_w125_c0 + x_w125_c1 + x_w125_c2 + x_w125_c3 + x_w125_c4 + x_w125_c5 + x_w125_c6 + x_w125_c7 + x_w125_c8 + x_w125_c9 + x_w125_c10 + x_w125_c11 + x_w125_c12 + x_w125_c13 + x_w125_c14 + x_w125_c15 + x_w125_c16 + x_w125_c17 + x_w125_c18 + x_w125_c19 + x_w125_c20 + x_w125_c21 + x_w125_c22 + x_w125_c23 + x_w125_c24 = 14
  lat_lin_w126_c0: x_w126_c0 + y_w126_c0 >= 0.3298
  lat_lin_w126_c1: x_w126_c1 + y_w126_c1 >= 1.1277
  lat_lin_w126_c2: x_w126_c2 + y_w126_c2 >= 0.4302
  lat_lin_w126_c3: x_w126_c3 + y_w126_c3 >= 0.4968
  lat_lin_w126_c4: x_w126_c4 + y_w126_c4 >= 0.3639
  lat_lin_w126_c5: x_w126_c5 + y_w126_c5 >= 0.5224
  lat_lin_w126_c6: x_w126_c6 + y_w126_c6 >= 1.3550
  lat_lin_w126_c7: x_w126_c7 + y_w126_c7 >= 0.3454
  lat_lin_w126_c8: x_w126_c8 + y_w126_c8 >= 0.4560
  lat_lin_w126_c9: x_w126_c9 + y_w126_c9 >= 0.1367
  lat_lin_w126_c10: x_w126_c10 + y_w126_c10 >= 1.1861
  lat_lin_w126_c11: x_w126_c11 + y_w126_c11 >= 1.2171
  lat_lin_w126_c12: x_w126_c12 + y_w126_c12 >= 0.0286
  lat_lin_w126_c13: x_w126_c13 + y_w126_c13 >= 1.0808
  lat_lin_w126_c14: x_w126_c14 + y_w126_c14 >= 0.3704
  lat_lin_w126_c15: x_w126_c15 + y_w126_c15 >= 0.9621
  lat_lin_w126_c16: x_w126_c16 + y_w126_c16 >= 0.0578
  lat_lin_w126_c17: x_w126_c17 + y_w126_c17 >= 0.0717
  lat_lin_w126_c18: x_w126_c18 + y_w126_c18 >= 0.4940
  lat_lin_w126_c19: x_w126_c19 + y_w126_c19 >= 0.8333
  lat_lin_w126_c20: x_w126_c20 + y_w126_c20 >= 0.2742
  lat_lin_w126_c21: x_w126_c21 + y_w126_c21 >= 0.5809
  lat_lin_w126_c22: x_w126_c22 + y_w126_c22 >= 0.3316
  lat_lin_w126_c23: x_w126_c23 + y_w126_c23 >= 0.2963
  lat_lin_w126_c24: x_w126_c24 + y_w126_c24 >= 0.6512
  demand_w126: x_w126_c0 + x_w126_c1 + x_w126_c2 + x_w126_c3 + x_w126_c4 + x_w126_c5 + x_w126_c6 + x_w126_c7 + x_w126_c8 + x_w126_c9 + x_w126_c10 + x_w126_c11 + x_w126_c12 + x_w126_c13 + x_w126_c14 + x_w126_c15 + x_w126_c16 + x_w126_c17 + x_w126_c18 + x_w126_c19 + x_w126_c20 + x_w126_c21 + x_w126_c22 + x_w126_c23 + x_w126_c24 = 14
  lat_lin_w127_c0: x_w127_c0 + y_w127_c0 >= 0.6170
  lat_lin_w127_c1: x_w127_c1 + y_w127_c1 >= 0.0670
  lat_lin_w127_c2: x_w127_c2 + y_w127_c2 >= 1.0645
  lat_lin_w127_c3: x_w127_c3 + y_w127_c3 >= 0.0722
  lat_lin_w127_c4: x_w127_c4 + y_w127_c4 >= 0.4556
  lat_lin_w127_c5: x_w127_c5 + y_w127_c5 >= 0.9783
  lat_lin_w127_c6: x_w127_c6 + y_w127_c6 >= 1.0063
  lat_lin_w127_c7: x_w127_c7 + y_w127_c7 >= 0.2991
  lat_lin_w127_c8: x_w127_c8 + y_w127_c8 >= 0.5532
  lat_lin_w127_c9: x_w127_c9 + y_w127_c9 >= 0.5297
  lat_lin_w127_c10: x_w127_c10 + y_w127_c10 >= 0.3938
  lat_lin_w127_c11: x_w127_c11 + y_w127_c11 >= 0.1363
  lat_lin_w127_c12: x_w127_c12 + y_w127_c12 >= 0.9896
  lat_lin_w127_c13: x_w127_c13 + y_w127_c13 >= 0.8246
  lat_lin_w127_c14: x_w127_c14 + y_w127_c14 >= 0.1119
  lat_lin_w127_c15: x_w127_c15 + y_w127_c15 >= 0.8459
  lat_lin_w127_c16: x_w127_c16 + y_w127_c16 >= 0.3767
  lat_lin_w127_c17: x_w127_c17 + y_w127_c17 >= 0.2161
  lat_lin_w127_c18: x_w127_c18 + y_w127_c18 >= 0.0314
  lat_lin_w127_c19: x_w127_c19 + y_w127_c19 >= 0.1616
  lat_lin_w127_c20: x_w127_c20 + y_w127_c20 >= 0.5617
  lat_lin_w127_c21: x_w127_c21 + y_w127_c21 >= 0.0898
  lat_lin_w127_c22: x_w127_c22 + y_w127_c22 >= 0.5975
  lat_lin_w127_c23: x_w127_c23 + y_w127_c23 >= 0.6516
  lat_lin_w127_c24: x_w127_c24 + y_w127_c24 >= 0.3685
  demand_w127: x_w127_c0 + x_w127_c1 + x_w127_c2 + x_w127_c3 + x_w127_c4 + x_w127_c5 + x_w127_c6 + x_w127_c7 + x_w127_c8 + x_w127_c9 + x_w127_c10 + x_w127_c11 + x_w127_c12 + x_w127_c13 + x_w127_c14 + x_w127_c15 + x_w127_c16 + x_w127_c17 + x_w127_c18 + x_w127_c19 + x_w127_c20 + x_w127_c21 + x_w127_c22 + x_w127_c23 + x_w127_c24 = 12
  lat_lin_w128_c0: x_w128_c0 + y_w128_c0 >= 0.0150
  lat_lin_w128_c1: x_w128_c1 + y_w128_c1 >= 0.3424
  lat_lin_w128_c2: x_w128_c2 + y_w128_c2 >= 0.3935
  lat_lin_w128_c3: x_w128_c3 + y_w128_c3 >= 0.1960
  lat_lin_w128_c4: x_w128_c4 + y_w128_c4 >= 0.4191
  lat_lin_w128_c5: x_w128_c5 + y_w128_c5 >= 0.0870
  lat_lin_w128_c6: x_w128_c6 + y_w128_c6 >= 0.2002
  lat_lin_w128_c7: x_w128_c7 + y_w128_c7 >= 0.1183
  lat_lin_w128_c8: x_w128_c8 + y_w128_c8 >= 0.3635
  lat_lin_w128_c9: x_w128_c9 + y_w128_c9 >= 0.3920
  lat_lin_w128_c10: x_w128_c10 + y_w128_c10 >= 0.1550
  lat_lin_w128_c11: x_w128_c11 + y_w128_c11 >= 0.3936
  lat_lin_w128_c12: x_w128_c12 + y_w128_c12 >= 0.1690
  lat_lin_w128_c13: x_w128_c13 + y_w128_c13 >= 0.2425
  lat_lin_w128_c14: x_w128_c14 + y_w128_c14 >= 0.4416
  lat_lin_w128_c15: x_w128_c15 + y_w128_c15 >= 0.2764
  lat_lin_w128_c16: x_w128_c16 + y_w128_c16 >= 0.1832
  lat_lin_w128_c17: x_w128_c17 + y_w128_c17 >= 0.0128
  lat_lin_w128_c18: x_w128_c18 + y_w128_c18 >= 0.2474
  lat_lin_w128_c19: x_w128_c19 + y_w128_c19 >= 0.0925
  lat_lin_w128_c20: x_w128_c20 + y_w128_c20 >= 0.3876
  lat_lin_w128_c21: x_w128_c21 + y_w128_c21 >= 0.4292
  lat_lin_w128_c22: x_w128_c22 + y_w128_c22 >= 0.0715
  lat_lin_w128_c23: x_w128_c23 + y_w128_c23 >= 0.3410
  lat_lin_w128_c24: x_w128_c24 + y_w128_c24 >= 0.0296
  demand_w128: x_w128_c0 + x_w128_c1 + x_w128_c2 + x_w128_c3 + x_w128_c4 + x_w128_c5 + x_w128_c6 + x_w128_c7 + x_w128_c8 + x_w128_c9 + x_w128_c10 + x_w128_c11 + x_w128_c12 + x_w128_c13 + x_w128_c14 + x_w128_c15 + x_w128_c16 + x_w128_c17 + x_w128_c18 + x_w128_c19 + x_w128_c20 + x_w128_c21 + x_w128_c22 + x_w128_c23 + x_w128_c24 = 6
  lat_lin_w129_c0: x_w129_c0 + y_w129_c0 >= 0.3245
  lat_lin_w129_c1: x_w129_c1 + y_w129_c1 >= 0.7227
  lat_lin_w129_c2: x_w129_c2 + y_w129_c2 >= 1.0529
  lat_lin_w129_c3: x_w129_c3 + y_w129_c3 >= 0.0910
  lat_lin_w129_c4: x_w129_c4 + y_w129_c4 >= 1.0786
  lat_lin_w129_c5: x_w129_c5 + y_w129_c5 >= 1.2582
  lat_lin_w129_c6: x_w129_c6 + y_w129_c6 >= 0.4765
  lat_lin_w129_c7: x_w129_c7 + y_w129_c7 >= 0.8096
  lat_lin_w129_c8: x_w129_c8 + y_w129_c8 >= 1.0939
  lat_lin_w129_c9: x_w129_c9 + y_w129_c9 >= 0.8982
  lat_lin_w129_c10: x_w129_c10 + y_w129_c10 >= 1.0645
  lat_lin_w129_c11: x_w129_c11 + y_w129_c11 >= 0.3532
  lat_lin_w129_c12: x_w129_c12 + y_w129_c12 >= 0.8672
  lat_lin_w129_c13: x_w129_c13 + y_w129_c13 >= 0.1368
  lat_lin_w129_c14: x_w129_c14 + y_w129_c14 >= 0.3041
  lat_lin_w129_c15: x_w129_c15 + y_w129_c15 >= 0.7562
  lat_lin_w129_c16: x_w129_c16 + y_w129_c16 >= 0.2294
  lat_lin_w129_c17: x_w129_c17 + y_w129_c17 >= 0.1059
  lat_lin_w129_c18: x_w129_c18 + y_w129_c18 >= 0.0014
  lat_lin_w129_c19: x_w129_c19 + y_w129_c19 >= 0.2860
  lat_lin_w129_c20: x_w129_c20 + y_w129_c20 >= 0.2976
  lat_lin_w129_c21: x_w129_c21 + y_w129_c21 >= 0.4610
  lat_lin_w129_c22: x_w129_c22 + y_w129_c22 >= 0.2984
  lat_lin_w129_c23: x_w129_c23 + y_w129_c23 >= 0.8537
  lat_lin_w129_c24: x_w129_c24 + y_w129_c24 >= 1.1783
  demand_w129: x_w129_c0 + x_w129_c1 + x_w129_c2 + x_w129_c3 + x_w129_c4 + x_w129_c5 + x_w129_c6 + x_w129_c7 + x_w129_c8 + x_w129_c9 + x_w129_c10 + x_w129_c11 + x_w129_c12 + x_w129_c13 + x_w129_c14 + x_w129_c15 + x_w129_c16 + x_w129_c17 + x_w129_c18 + x_w129_c19 + x_w129_c20 + x_w129_c21 + x_w129_c22 + x_w129_c23 + x_w129_c24 = 15
  lat_lin_w130_c0: x_w130_c0 + y_w130_c0 >= 0.5542
  lat_lin_w130_c1: x_w130_c1 + y_w130_c1 >= 0.6172
  lat_lin_w130_c2: x_w130_c2 + y_w130_c2 >= 0.9620
  lat_lin_w130_c3: x_w130_c3 + y_w130_c3 >= 0.1856
  lat_lin_w130_c4: x_w130_c4 + y_w130_c4 >= 0.4818
  lat_lin_w130_c5: x_w130_c5 + y_w130_c5 >= 0.7874
  lat_lin_w130_c6: x_w130_c6 + y_w130_c6 >= 0.7796
  lat_lin_w130_c7: x_w130_c7 + y_w130_c7 >= 0.4493
  lat_lin_w130_c8: x_w130_c8 + y_w130_c8 >= 0.9704
  lat_lin_w130_c9: x_w130_c9 + y_w130_c9 >= 0.7273
  lat_lin_w130_c10: x_w130_c10 + y_w130_c10 >= 0.7167
  lat_lin_w130_c11: x_w130_c11 + y_w130_c11 >= 0.7149
  lat_lin_w130_c12: x_w130_c12 + y_w130_c12 >= 0.2520
  lat_lin_w130_c13: x_w130_c13 + y_w130_c13 >= 0.4240
  lat_lin_w130_c14: x_w130_c14 + y_w130_c14 >= 0.8470
  lat_lin_w130_c15: x_w130_c15 + y_w130_c15 >= 0.0310
  lat_lin_w130_c16: x_w130_c16 + y_w130_c16 >= 0.1086
  lat_lin_w130_c17: x_w130_c17 + y_w130_c17 >= 0.6831
  lat_lin_w130_c18: x_w130_c18 + y_w130_c18 >= 0.1744
  lat_lin_w130_c19: x_w130_c19 + y_w130_c19 >= 0.7725
  lat_lin_w130_c20: x_w130_c20 + y_w130_c20 >= 0.8562
  lat_lin_w130_c21: x_w130_c21 + y_w130_c21 >= 0.2239
  lat_lin_w130_c22: x_w130_c22 + y_w130_c22 >= 0.6620
  lat_lin_w130_c23: x_w130_c23 + y_w130_c23 >= 0.8373
  lat_lin_w130_c24: x_w130_c24 + y_w130_c24 >= 0.1815
  demand_w130: x_w130_c0 + x_w130_c1 + x_w130_c2 + x_w130_c3 + x_w130_c4 + x_w130_c5 + x_w130_c6 + x_w130_c7 + x_w130_c8 + x_w130_c9 + x_w130_c10 + x_w130_c11 + x_w130_c12 + x_w130_c13 + x_w130_c14 + x_w130_c15 + x_w130_c16 + x_w130_c17 + x_w130_c18 + x_w130_c19 + x_w130_c20 + x_w130_c21 + x_w130_c22 + x_w130_c23 + x_w130_c24 = 14
  lat_lin_w131_c0: x_w131_c0 + y_w131_c0 >= 0.5762
  lat_lin_w131_c1: x_w131_c1 + y_w131_c1 >= 0.1065
  lat_lin_w131_c2: x_w131_c2 + y_w131_c2 >= 0.2428
  lat_lin_w131_c3: x_w131_c3 + y_w131_c3 >= 0.3896
  lat_lin_w131_c4: x_w131_c4 + y_w131_c4 >= 0.7021
  lat_lin_w131_c5: x_w131_c5 + y_w131_c5 >= 0.5056
  lat_lin_w131_c6: x_w131_c6 + y_w131_c6 >= 0.6549
  lat_lin_w131_c7: x_w131_c7 + y_w131_c7 >= 0.7662
  lat_lin_w131_c8: x_w131_c8 + y_w131_c8 >= 0.4055
  lat_lin_w131_c9: x_w131_c9 + y_w131_c9 >= 0.1598
  lat_lin_w131_c10: x_w131_c10 + y_w131_c10 >= 0.5370
  lat_lin_w131_c11: x_w131_c11 + y_w131_c11 >= 0.4589
  lat_lin_w131_c12: x_w131_c12 + y_w131_c12 >= 0.4325
  lat_lin_w131_c13: x_w131_c13 + y_w131_c13 >= 0.4702
  lat_lin_w131_c14: x_w131_c14 + y_w131_c14 >= 0.1613
  lat_lin_w131_c15: x_w131_c15 + y_w131_c15 >= 0.8255
  lat_lin_w131_c16: x_w131_c16 + y_w131_c16 >= 0.5567
  lat_lin_w131_c17: x_w131_c17 + y_w131_c17 >= 0.4266
  lat_lin_w131_c18: x_w131_c18 + y_w131_c18 >= 0.5300
  lat_lin_w131_c19: x_w131_c19 + y_w131_c19 >= 0.4441
  lat_lin_w131_c20: x_w131_c20 + y_w131_c20 >= 0.4211
  lat_lin_w131_c21: x_w131_c21 + y_w131_c21 >= 0.5125
  lat_lin_w131_c22: x_w131_c22 + y_w131_c22 >= 0.2885
  lat_lin_w131_c23: x_w131_c23 + y_w131_c23 >= 0.7917
  lat_lin_w131_c24: x_w131_c24 + y_w131_c24 >= 0.6342
  demand_w131: x_w131_c0 + x_w131_c1 + x_w131_c2 + x_w131_c3 + x_w131_c4 + x_w131_c5 + x_w131_c6 + x_w131_c7 + x_w131_c8 + x_w131_c9 + x_w131_c10 + x_w131_c11 + x_w131_c12 + x_w131_c13 + x_w131_c14 + x_w131_c15 + x_w131_c16 + x_w131_c17 + x_w131_c18 + x_w131_c19 + x_w131_c20 + x_w131_c21 + x_w131_c22 + x_w131_c23 + x_w131_c24 = 12
  lat_lin_w132_c0: x_w132_c0 + y_w132_c0 >= 0.1779
  lat_lin_w132_c1: x_w132_c1 + y_w132_c1 >= 0.2544
  lat_lin_w132_c2: x_w132_c2 + y_w132_c2 >= 0.1441
  lat_lin_w132_c3: x_w132_c3 + y_w132_c3 >= 0.1510
  lat_lin_w132_c4: x_w132_c4 + y_w132_c4 >= 0.0749
  lat_lin_w132_c5: x_w132_c5 + y_w132_c5 >= 0.5070
  lat_lin_w132_c6: x_w132_c6 + y_w132_c6 >= 0.0312
  lat_lin_w132_c7: x_w132_c7 + y_w132_c7 >= 0.1325
  lat_lin_w132_c8: x_w132_c8 + y_w132_c8 >= 0.1671
  lat_lin_w132_c9: x_w132_c9 + y_w132_c9 >= 0.1601
  lat_lin_w132_c10: x_w132_c10 + y_w132_c10 >= 0.2410
  lat_lin_w132_c11: x_w132_c11 + y_w132_c11 >= 0.4216
  lat_lin_w132_c12: x_w132_c12 + y_w132_c12 >= 0.2095
  lat_lin_w132_c13: x_w132_c13 + y_w132_c13 >= 0.3100
  lat_lin_w132_c14: x_w132_c14 + y_w132_c14 >= 0.1925
  lat_lin_w132_c15: x_w132_c15 + y_w132_c15 >= 0.3404
  lat_lin_w132_c16: x_w132_c16 + y_w132_c16 >= 0.0335
  lat_lin_w132_c17: x_w132_c17 + y_w132_c17 >= 0.1305
  lat_lin_w132_c18: x_w132_c18 + y_w132_c18 >= 0.1336
  lat_lin_w132_c19: x_w132_c19 + y_w132_c19 >= 0.0212
  lat_lin_w132_c20: x_w132_c20 + y_w132_c20 >= 0.1940
  lat_lin_w132_c21: x_w132_c21 + y_w132_c21 >= 0.0095
  lat_lin_w132_c22: x_w132_c22 + y_w132_c22 >= 0.3917
  lat_lin_w132_c23: x_w132_c23 + y_w132_c23 >= 0.3648
  lat_lin_w132_c24: x_w132_c24 + y_w132_c24 >= 0.2060
  demand_w132: x_w132_c0 + x_w132_c1 + x_w132_c2 + x_w132_c3 + x_w132_c4 + x_w132_c5 + x_w132_c6 + x_w132_c7 + x_w132_c8 + x_w132_c9 + x_w132_c10 + x_w132_c11 + x_w132_c12 + x_w132_c13 + x_w132_c14 + x_w132_c15 + x_w132_c16 + x_w132_c17 + x_w132_c18 + x_w132_c19 + x_w132_c20 + x_w132_c21 + x_w132_c22 + x_w132_c23 + x_w132_c24 = 5
  lat_lin_w133_c0: x_w133_c0 + y_w133_c0 >= 0.1918
  lat_lin_w133_c1: x_w133_c1 + y_w133_c1 >= 0.6134
  lat_lin_w133_c2: x_w133_c2 + y_w133_c2 >= 0.6398
  lat_lin_w133_c3: x_w133_c3 + y_w133_c3 >= 0.0195
  lat_lin_w133_c4: x_w133_c4 + y_w133_c4 >= 0.1672
  lat_lin_w133_c5: x_w133_c5 + y_w133_c5 >= 0.3149
  lat_lin_w133_c6: x_w133_c6 + y_w133_c6 >= 0.6797
  lat_lin_w133_c7: x_w133_c7 + y_w133_c7 >= 0.6418
  lat_lin_w133_c8: x_w133_c8 + y_w133_c8 >= 0.6261
  lat_lin_w133_c9: x_w133_c9 + y_w133_c9 >= 0.1151
  lat_lin_w133_c10: x_w133_c10 + y_w133_c10 >= 0.6111
  lat_lin_w133_c11: x_w133_c11 + y_w133_c11 >= 0.3433
  lat_lin_w133_c12: x_w133_c12 + y_w133_c12 >= 0.2716
  lat_lin_w133_c13: x_w133_c13 + y_w133_c13 >= 0.6095
  lat_lin_w133_c14: x_w133_c14 + y_w133_c14 >= 0.4779
  lat_lin_w133_c15: x_w133_c15 + y_w133_c15 >= 0.4805
  lat_lin_w133_c16: x_w133_c16 + y_w133_c16 >= 0.4075
  lat_lin_w133_c17: x_w133_c17 + y_w133_c17 >= 0.4798
  lat_lin_w133_c18: x_w133_c18 + y_w133_c18 >= 0.3167
  lat_lin_w133_c19: x_w133_c19 + y_w133_c19 >= 0.5898
  lat_lin_w133_c20: x_w133_c20 + y_w133_c20 >= 0.5039
  lat_lin_w133_c21: x_w133_c21 + y_w133_c21 >= 0.5210
  lat_lin_w133_c22: x_w133_c22 + y_w133_c22 >= 0.0696
  lat_lin_w133_c23: x_w133_c23 + y_w133_c23 >= 0.6036
  lat_lin_w133_c24: x_w133_c24 + y_w133_c24 >= 0.7048
  demand_w133: x_w133_c0 + x_w133_c1 + x_w133_c2 + x_w133_c3 + x_w133_c4 + x_w133_c5 + x_w133_c6 + x_w133_c7 + x_w133_c8 + x_w133_c9 + x_w133_c10 + x_w133_c11 + x_w133_c12 + x_w133_c13 + x_w133_c14 + x_w133_c15 + x_w133_c16 + x_w133_c17 + x_w133_c18 + x_w133_c19 + x_w133_c20 + x_w133_c21 + x_w133_c22 + x_w133_c23 + x_w133_c24 = 11
  lat_lin_w134_c0: x_w134_c0 + y_w134_c0 >= 0.2866
  lat_lin_w134_c1: x_w134_c1 + y_w134_c1 >= 0.5050
  lat_lin_w134_c2: x_w134_c2 + y_w134_c2 >= 0.3244
  lat_lin_w134_c3: x_w134_c3 + y_w134_c3 >= 0.3192
  lat_lin_w134_c4: x_w134_c4 + y_w134_c4 >= 0.4259
  lat_lin_w134_c5: x_w134_c5 + y_w134_c5 >= 0.1181
  lat_lin_w134_c6: x_w134_c6 + y_w134_c6 >= 0.4541
  lat_lin_w134_c7: x_w134_c7 + y_w134_c7 >= 0.2586
  lat_lin_w134_c8: x_w134_c8 + y_w134_c8 >= 0.2071
  lat_lin_w134_c9: x_w134_c9 + y_w134_c9 >= 0.1908
  lat_lin_w134_c10: x_w134_c10 + y_w134_c10 >= 0.3570
  lat_lin_w134_c11: x_w134_c11 + y_w134_c11 >= 0.4528
  lat_lin_w134_c12: x_w134_c12 + y_w134_c12 >= 0.3299
  lat_lin_w134_c13: x_w134_c13 + y_w134_c13 >= 0.0238
  lat_lin_w134_c14: x_w134_c14 + y_w134_c14 >= 0.5229
  lat_lin_w134_c15: x_w134_c15 + y_w134_c15 >= 0.4142
  lat_lin_w134_c16: x_w134_c16 + y_w134_c16 >= 0.4432
  lat_lin_w134_c17: x_w134_c17 + y_w134_c17 >= 0.4582
  lat_lin_w134_c18: x_w134_c18 + y_w134_c18 >= 0.4271
  lat_lin_w134_c19: x_w134_c19 + y_w134_c19 >= 0.3905
  lat_lin_w134_c20: x_w134_c20 + y_w134_c20 >= 0.3718
  lat_lin_w134_c21: x_w134_c21 + y_w134_c21 >= 0.0359
  lat_lin_w134_c22: x_w134_c22 + y_w134_c22 >= 0.3417
  lat_lin_w134_c23: x_w134_c23 + y_w134_c23 >= 0.2669
  lat_lin_w134_c24: x_w134_c24 + y_w134_c24 >= 0.0742
  demand_w134: x_w134_c0 + x_w134_c1 + x_w134_c2 + x_w134_c3 + x_w134_c4 + x_w134_c5 + x_w134_c6 + x_w134_c7 + x_w134_c8 + x_w134_c9 + x_w134_c10 + x_w134_c11 + x_w134_c12 + x_w134_c13 + x_w134_c14 + x_w134_c15 + x_w134_c16 + x_w134_c17 + x_w134_c18 + x_w134_c19 + x_w134_c20 + x_w134_c21 + x_w134_c22 + x_w134_c23 + x_w134_c24 = 8
  lat_lin_w135_c0: x_w135_c0 + y_w135_c0 >= 0.2298
  lat_lin_w135_c1: x_w135_c1 + y_w135_c1 >= 0.1350
  lat_lin_w135_c2: x_w135_c2 + y_w135_c2 >= 0.1325
  lat_lin_w135_c3: x_w135_c3 + y_w135_c3 >= 0.1073
  lat_lin_w135_c4: x_w135_c4 + y_w135_c4 >= 0.0206
  lat_lin_w135_c5: x_w135_c5 + y_w135_c5 >= 0.0078
  lat_lin_w135_c6: x_w135_c6 + y_w135_c6 >= 0.1592
  lat_lin_w135_c7: x_w135_c7 + y_w135_c7 >= 0.1301
  lat_lin_w135_c8: x_w135_c8 + y_w135_c8 >= 0.2460
  lat_lin_w135_c9: x_w135_c9 + y_w135_c9 >= 0.2511
  lat_lin_w135_c10: x_w135_c10 + y_w135_c10 >= 0.2717
  lat_lin_w135_c11: x_w135_c11 + y_w135_c11 >= 0.1863
  lat_lin_w135_c12: x_w135_c12 + y_w135_c12 >= 0.1094
  lat_lin_w135_c13: x_w135_c13 + y_w135_c13 >= 0.1716
  lat_lin_w135_c14: x_w135_c14 + y_w135_c14 >= 0.1392
  lat_lin_w135_c15: x_w135_c15 + y_w135_c15 >= 0.0062
  lat_lin_w135_c16: x_w135_c16 + y_w135_c16 >= 0.1627
  lat_lin_w135_c17: x_w135_c17 + y_w135_c17 >= 0.2121
  lat_lin_w135_c18: x_w135_c18 + y_w135_c18 >= 0.1173
  lat_lin_w135_c19: x_w135_c19 + y_w135_c19 >= 0.2722
  lat_lin_w135_c20: x_w135_c20 + y_w135_c20 >= 0.0761
  lat_lin_w135_c21: x_w135_c21 + y_w135_c21 >= 0.2562
  lat_lin_w135_c22: x_w135_c22 + y_w135_c22 >= 0.2030
  lat_lin_w135_c23: x_w135_c23 + y_w135_c23 >= 0.2624
  lat_lin_w135_c24: x_w135_c24 + y_w135_c24 >= 0.1342
  demand_w135: x_w135_c0 + x_w135_c1 + x_w135_c2 + x_w135_c3 + x_w135_c4 + x_w135_c5 + x_w135_c6 + x_w135_c7 + x_w135_c8 + x_w135_c9 + x_w135_c10 + x_w135_c11 + x_w135_c12 + x_w135_c13 + x_w135_c14 + x_w135_c15 + x_w135_c16 + x_w135_c17 + x_w135_c18 + x_w135_c19 + x_w135_c20 + x_w135_c21 + x_w135_c22 + x_w135_c23 + x_w135_c24 = 4
  lat_lin_w136_c0: x_w136_c0 + y_w136_c0 >= 0.4011
  lat_lin_w136_c1: x_w136_c1 + y_w136_c1 >= 0.5091
  lat_lin_w136_c2: x_w136_c2 + y_w136_c2 >= 0.1282
  lat_lin_w136_c3: x_w136_c3 + y_w136_c3 >= 0.1159
  lat_lin_w136_c4: x_w136_c4 + y_w136_c4 >= 0.4312
  lat_lin_w136_c5: x_w136_c5 + y_w136_c5 >= 0.1849
  lat_lin_w136_c6: x_w136_c6 + y_w136_c6 >= 0.4924
  lat_lin_w136_c7: x_w136_c7 + y_w136_c7 >= 0.5106
  lat_lin_w136_c8: x_w136_c8 + y_w136_c8 >= 0.2469
  lat_lin_w136_c9: x_w136_c9 + y_w136_c9 >= 0.0191
  lat_lin_w136_c10: x_w136_c10 + y_w136_c10 >= 0.3378
  lat_lin_w136_c11: x_w136_c11 + y_w136_c11 >= 0.2509
  lat_lin_w136_c12: x_w136_c12 + y_w136_c12 >= 0.3774
  lat_lin_w136_c13: x_w136_c13 + y_w136_c13 >= 0.2970
  lat_lin_w136_c14: x_w136_c14 + y_w136_c14 >= 0.5062
  lat_lin_w136_c15: x_w136_c15 + y_w136_c15 >= 0.0375
  lat_lin_w136_c16: x_w136_c16 + y_w136_c16 >= 0.1870
  lat_lin_w136_c17: x_w136_c17 + y_w136_c17 >= 0.4598
  lat_lin_w136_c18: x_w136_c18 + y_w136_c18 >= 0.4540
  lat_lin_w136_c19: x_w136_c19 + y_w136_c19 >= 0.3162
  lat_lin_w136_c20: x_w136_c20 + y_w136_c20 >= 0.0733
  lat_lin_w136_c21: x_w136_c21 + y_w136_c21 >= 0.0795
  lat_lin_w136_c22: x_w136_c22 + y_w136_c22 >= 0.3306
  lat_lin_w136_c23: x_w136_c23 + y_w136_c23 >= 0.2391
  lat_lin_w136_c24: x_w136_c24 + y_w136_c24 >= 0.0142
  demand_w136: x_w136_c0 + x_w136_c1 + x_w136_c2 + x_w136_c3 + x_w136_c4 + x_w136_c5 + x_w136_c6 + x_w136_c7 + x_w136_c8 + x_w136_c9 + x_w136_c10 + x_w136_c11 + x_w136_c12 + x_w136_c13 + x_w136_c14 + x_w136_c15 + x_w136_c16 + x_w136_c17 + x_w136_c18 + x_w136_c19 + x_w136_c20 + x_w136_c21 + x_w136_c22 + x_w136_c23 + x_w136_c24 = 7
  lat_lin_w137_c0: x_w137_c0 + y_w137_c0 >= 0.3112
  lat_lin_w137_c1: x_w137_c1 + y_w137_c1 >= 0.3367
  lat_lin_w137_c2: x_w137_c2 + y_w137_c2 >= 0.4458
  lat_lin_w137_c3: x_w137_c3 + y_w137_c3 >= 0.3036
  lat_lin_w137_c4: x_w137_c4 + y_w137_c4 >= 0.5472
  lat_lin_w137_c5: x_w137_c5 + y_w137_c5 >= 0.2212
  lat_lin_w137_c6: x_w137_c6 + y_w137_c6 >= 0.4493
  lat_lin_w137_c7: x_w137_c7 + y_w137_c7 >= 0.3785
  lat_lin_w137_c8: x_w137_c8 + y_w137_c8 >= 0.3402
  lat_lin_w137_c9: x_w137_c9 + y_w137_c9 >= 0.2433
  lat_lin_w137_c10: x_w137_c10 + y_w137_c10 >= 0.5591
  lat_lin_w137_c11: x_w137_c11 + y_w137_c11 >= 0.5652
  lat_lin_w137_c12: x_w137_c12 + y_w137_c12 >= 0.5673
  lat_lin_w137_c13: x_w137_c13 + y_w137_c13 >= 0.1984
  lat_lin_w137_c14: x_w137_c14 + y_w137_c14 >= 0.5661
  lat_lin_w137_c15: x_w137_c15 + y_w137_c15 >= 0.1058
  lat_lin_w137_c16: x_w137_c16 + y_w137_c16 >= 0.0615
  lat_lin_w137_c17: x_w137_c17 + y_w137_c17 >= 0.5138
  lat_lin_w137_c18: x_w137_c18 + y_w137_c18 >= 0.0212
  lat_lin_w137_c19: x_w137_c19 + y_w137_c19 >= 0.0981
  lat_lin_w137_c20: x_w137_c20 + y_w137_c20 >= 0.0842
  lat_lin_w137_c21: x_w137_c21 + y_w137_c21 >= 0.1188
  lat_lin_w137_c22: x_w137_c22 + y_w137_c22 >= 0.0636
  lat_lin_w137_c23: x_w137_c23 + y_w137_c23 >= 0.6261
  lat_lin_w137_c24: x_w137_c24 + y_w137_c24 >= 0.2739
  demand_w137: x_w137_c0 + x_w137_c1 + x_w137_c2 + x_w137_c3 + x_w137_c4 + x_w137_c5 + x_w137_c6 + x_w137_c7 + x_w137_c8 + x_w137_c9 + x_w137_c10 + x_w137_c11 + x_w137_c12 + x_w137_c13 + x_w137_c14 + x_w137_c15 + x_w137_c16 + x_w137_c17 + x_w137_c18 + x_w137_c19 + x_w137_c20 + x_w137_c21 + x_w137_c22 + x_w137_c23 + x_w137_c24 = 8
  lat_lin_w138_c0: x_w138_c0 + y_w138_c0 >= 0.6610
  lat_lin_w138_c1: x_w138_c1 + y_w138_c1 >= 0.4840
  lat_lin_w138_c2: x_w138_c2 + y_w138_c2 >= 0.2815
  lat_lin_w138_c3: x_w138_c3 + y_w138_c3 >= 0.0088
  lat_lin_w138_c4: x_w138_c4 + y_w138_c4 >= 0.6793
  lat_lin_w138_c5: x_w138_c5 + y_w138_c5 >= 0.6605
  lat_lin_w138_c6: x_w138_c6 + y_w138_c6 >= 0.0877
  lat_lin_w138_c7: x_w138_c7 + y_w138_c7 >= 0.3822
  lat_lin_w138_c8: x_w138_c8 + y_w138_c8 >= 1.0494
  lat_lin_w138_c9: x_w138_c9 + y_w138_c9 >= 0.3403
  lat_lin_w138_c10: x_w138_c10 + y_w138_c10 >= 0.8727
  lat_lin_w138_c11: x_w138_c11 + y_w138_c11 >= 0.4235
  lat_lin_w138_c12: x_w138_c12 + y_w138_c12 >= 0.4213
  lat_lin_w138_c13: x_w138_c13 + y_w138_c13 >= 0.9112
  lat_lin_w138_c14: x_w138_c14 + y_w138_c14 >= 0.3691
  lat_lin_w138_c15: x_w138_c15 + y_w138_c15 >= 0.6732
  lat_lin_w138_c16: x_w138_c16 + y_w138_c16 >= 0.5862
  lat_lin_w138_c17: x_w138_c17 + y_w138_c17 >= 1.0492
  lat_lin_w138_c18: x_w138_c18 + y_w138_c18 >= 0.2984
  lat_lin_w138_c19: x_w138_c19 + y_w138_c19 >= 0.8899
  lat_lin_w138_c20: x_w138_c20 + y_w138_c20 >= 0.1072
  lat_lin_w138_c21: x_w138_c21 + y_w138_c21 >= 1.0896
  lat_lin_w138_c22: x_w138_c22 + y_w138_c22 >= 0.8135
  lat_lin_w138_c23: x_w138_c23 + y_w138_c23 >= 0.7695
  lat_lin_w138_c24: x_w138_c24 + y_w138_c24 >= 0.0906
  demand_w138: x_w138_c0 + x_w138_c1 + x_w138_c2 + x_w138_c3 + x_w138_c4 + x_w138_c5 + x_w138_c6 + x_w138_c7 + x_w138_c8 + x_w138_c9 + x_w138_c10 + x_w138_c11 + x_w138_c12 + x_w138_c13 + x_w138_c14 + x_w138_c15 + x_w138_c16 + x_w138_c17 + x_w138_c18 + x_w138_c19 + x_w138_c20 + x_w138_c21 + x_w138_c22 + x_w138_c23 + x_w138_c24 = 14
  lat_lin_w139_c0: x_w139_c0 + y_w139_c0 >= 0.0734
  lat_lin_w139_c1: x_w139_c1 + y_w139_c1 >= 0.2295
  lat_lin_w139_c2: x_w139_c2 + y_w139_c2 >= 0.5630
  lat_lin_w139_c3: x_w139_c3 + y_w139_c3 >= 0.3524
  lat_lin_w139_c4: x_w139_c4 + y_w139_c4 >= 0.1344
  lat_lin_w139_c5: x_w139_c5 + y_w139_c5 >= 0.2657
  lat_lin_w139_c6: x_w139_c6 + y_w139_c6 >= 0.4470
  lat_lin_w139_c7: x_w139_c7 + y_w139_c7 >= 0.5318
  lat_lin_w139_c8: x_w139_c8 + y_w139_c8 >= 0.5180
  lat_lin_w139_c9: x_w139_c9 + y_w139_c9 >= 0.4387
  lat_lin_w139_c10: x_w139_c10 + y_w139_c10 >= 0.0771
  lat_lin_w139_c11: x_w139_c11 + y_w139_c11 >= 0.3996
  lat_lin_w139_c12: x_w139_c12 + y_w139_c12 >= 0.0798
  lat_lin_w139_c13: x_w139_c13 + y_w139_c13 >= 0.5299
  lat_lin_w139_c14: x_w139_c14 + y_w139_c14 >= 0.0038
  lat_lin_w139_c15: x_w139_c15 + y_w139_c15 >= 0.5783
  lat_lin_w139_c16: x_w139_c16 + y_w139_c16 >= 0.1219
  lat_lin_w139_c17: x_w139_c17 + y_w139_c17 >= 0.4234
  lat_lin_w139_c18: x_w139_c18 + y_w139_c18 >= 0.2333
  lat_lin_w139_c19: x_w139_c19 + y_w139_c19 >= 0.4505
  lat_lin_w139_c20: x_w139_c20 + y_w139_c20 >= 0.5121
  lat_lin_w139_c21: x_w139_c21 + y_w139_c21 >= 0.0411
  lat_lin_w139_c22: x_w139_c22 + y_w139_c22 >= 0.4417
  lat_lin_w139_c23: x_w139_c23 + y_w139_c23 >= 0.0332
  lat_lin_w139_c24: x_w139_c24 + y_w139_c24 >= 0.5204
  demand_w139: x_w139_c0 + x_w139_c1 + x_w139_c2 + x_w139_c3 + x_w139_c4 + x_w139_c5 + x_w139_c6 + x_w139_c7 + x_w139_c8 + x_w139_c9 + x_w139_c10 + x_w139_c11 + x_w139_c12 + x_w139_c13 + x_w139_c14 + x_w139_c15 + x_w139_c16 + x_w139_c17 + x_w139_c18 + x_w139_c19 + x_w139_c20 + x_w139_c21 + x_w139_c22 + x_w139_c23 + x_w139_c24 = 8
  lat_lin_w140_c0: x_w140_c0 + y_w140_c0 >= 0.3135
  lat_lin_w140_c1: x_w140_c1 + y_w140_c1 >= 0.2790
  lat_lin_w140_c2: x_w140_c2 + y_w140_c2 >= 0.2384
  lat_lin_w140_c3: x_w140_c3 + y_w140_c3 >= 0.5147
  lat_lin_w140_c4: x_w140_c4 + y_w140_c4 >= 0.4181
  lat_lin_w140_c5: x_w140_c5 + y_w140_c5 >= 0.3707
  lat_lin_w140_c6: x_w140_c6 + y_w140_c6 >= 0.2094
  lat_lin_w140_c7: x_w140_c7 + y_w140_c7 >= 0.0762
  lat_lin_w140_c8: x_w140_c8 + y_w140_c8 >= 0.4976
  lat_lin_w140_c9: x_w140_c9 + y_w140_c9 >= 0.2926
  lat_lin_w140_c10: x_w140_c10 + y_w140_c10 >= 0.0908
  lat_lin_w140_c11: x_w140_c11 + y_w140_c11 >= 0.0817
  lat_lin_w140_c12: x_w140_c12 + y_w140_c12 >= 0.5009
  lat_lin_w140_c13: x_w140_c13 + y_w140_c13 >= 0.4598
  lat_lin_w140_c14: x_w140_c14 + y_w140_c14 >= 0.3839
  lat_lin_w140_c15: x_w140_c15 + y_w140_c15 >= 0.1315
  lat_lin_w140_c16: x_w140_c16 + y_w140_c16 >= 0.2548
  lat_lin_w140_c17: x_w140_c17 + y_w140_c17 >= 0.3652
  lat_lin_w140_c18: x_w140_c18 + y_w140_c18 >= 0.1024
  lat_lin_w140_c19: x_w140_c19 + y_w140_c19 >= 0.1571
  lat_lin_w140_c20: x_w140_c20 + y_w140_c20 >= 0.1321
  lat_lin_w140_c21: x_w140_c21 + y_w140_c21 >= 0.0195
  lat_lin_w140_c22: x_w140_c22 + y_w140_c22 >= 0.4804
  lat_lin_w140_c23: x_w140_c23 + y_w140_c23 >= 0.2695
  lat_lin_w140_c24: x_w140_c24 + y_w140_c24 >= 0.3603
  demand_w140: x_w140_c0 + x_w140_c1 + x_w140_c2 + x_w140_c3 + x_w140_c4 + x_w140_c5 + x_w140_c6 + x_w140_c7 + x_w140_c8 + x_w140_c9 + x_w140_c10 + x_w140_c11 + x_w140_c12 + x_w140_c13 + x_w140_c14 + x_w140_c15 + x_w140_c16 + x_w140_c17 + x_w140_c18 + x_w140_c19 + x_w140_c20 + x_w140_c21 + x_w140_c22 + x_w140_c23 + x_w140_c24 = 7
  lat_lin_w141_c0: x_w141_c0 + y_w141_c0 >= 0.4471
  lat_lin_w141_c1: x_w141_c1 + y_w141_c1 >= 0.8403
  lat_lin_w141_c2: x_w141_c2 + y_w141_c2 >= 0.4434
  lat_lin_w141_c3: x_w141_c3 + y_w141_c3 >= 0.8075
  lat_lin_w141_c4: x_w141_c4 + y_w141_c4 >= 0.4047
  lat_lin_w141_c5: x_w141_c5 + y_w141_c5 >= 0.4641
  lat_lin_w141_c6: x_w141_c6 + y_w141_c6 >= 0.8870
  lat_lin_w141_c7: x_w141_c7 + y_w141_c7 >= 0.7509
  lat_lin_w141_c8: x_w141_c8 + y_w141_c8 >= 0.0916
  lat_lin_w141_c9: x_w141_c9 + y_w141_c9 >= 0.0819
  lat_lin_w141_c10: x_w141_c10 + y_w141_c10 >= 0.7434
  lat_lin_w141_c11: x_w141_c11 + y_w141_c11 >= 0.2813
  lat_lin_w141_c12: x_w141_c12 + y_w141_c12 >= 0.5331
  lat_lin_w141_c13: x_w141_c13 + y_w141_c13 >= 0.3689
  lat_lin_w141_c14: x_w141_c14 + y_w141_c14 >= 0.3477
  lat_lin_w141_c15: x_w141_c15 + y_w141_c15 >= 0.3138
  lat_lin_w141_c16: x_w141_c16 + y_w141_c16 >= 0.2192
  lat_lin_w141_c17: x_w141_c17 + y_w141_c17 >= 0.8412
  lat_lin_w141_c18: x_w141_c18 + y_w141_c18 >= 0.2585
  lat_lin_w141_c19: x_w141_c19 + y_w141_c19 >= 0.8652
  lat_lin_w141_c20: x_w141_c20 + y_w141_c20 >= 0.1138
  lat_lin_w141_c21: x_w141_c21 + y_w141_c21 >= 0.7693
  lat_lin_w141_c22: x_w141_c22 + y_w141_c22 >= 0.3613
  lat_lin_w141_c23: x_w141_c23 + y_w141_c23 >= 0.5283
  lat_lin_w141_c24: x_w141_c24 + y_w141_c24 >= 0.2365
  demand_w141: x_w141_c0 + x_w141_c1 + x_w141_c2 + x_w141_c3 + x_w141_c4 + x_w141_c5 + x_w141_c6 + x_w141_c7 + x_w141_c8 + x_w141_c9 + x_w141_c10 + x_w141_c11 + x_w141_c12 + x_w141_c13 + x_w141_c14 + x_w141_c15 + x_w141_c16 + x_w141_c17 + x_w141_c18 + x_w141_c19 + x_w141_c20 + x_w141_c21 + x_w141_c22 + x_w141_c23 + x_w141_c24 = 12
  lat_lin_w142_c0: x_w142_c0 + y_w142_c0 >= 0.4867
  lat_lin_w142_c1: x_w142_c1 + y_w142_c1 >= 0.4251
  lat_lin_w142_c2: x_w142_c2 + y_w142_c2 >= 0.6540
  lat_lin_w142_c3: x_w142_c3 + y_w142_c3 >= 0.3410
  lat_lin_w142_c4: x_w142_c4 + y_w142_c4 >= 0.6602
  lat_lin_w142_c5: x_w142_c5 + y_w142_c5 >= 0.4464
  lat_lin_w142_c6: x_w142_c6 + y_w142_c6 >= 0.0850
  lat_lin_w142_c7: x_w142_c7 + y_w142_c7 >= 0.4824
  lat_lin_w142_c8: x_w142_c8 + y_w142_c8 >= 0.2827
  lat_lin_w142_c9: x_w142_c9 + y_w142_c9 >= 0.6178
  lat_lin_w142_c10: x_w142_c10 + y_w142_c10 >= 0.1624
  lat_lin_w142_c11: x_w142_c11 + y_w142_c11 >= 0.6380
  lat_lin_w142_c12: x_w142_c12 + y_w142_c12 >= 0.0965
  lat_lin_w142_c13: x_w142_c13 + y_w142_c13 >= 0.5840
  lat_lin_w142_c14: x_w142_c14 + y_w142_c14 >= 0.3202
  lat_lin_w142_c15: x_w142_c15 + y_w142_c15 >= 0.2550
  lat_lin_w142_c16: x_w142_c16 + y_w142_c16 >= 0.0716
  lat_lin_w142_c17: x_w142_c17 + y_w142_c17 >= 0.5410
  lat_lin_w142_c18: x_w142_c18 + y_w142_c18 >= 0.1427
  lat_lin_w142_c19: x_w142_c19 + y_w142_c19 >= 0.0323
  lat_lin_w142_c20: x_w142_c20 + y_w142_c20 >= 0.1303
  lat_lin_w142_c21: x_w142_c21 + y_w142_c21 >= 0.2165
  lat_lin_w142_c22: x_w142_c22 + y_w142_c22 >= 0.7512
  lat_lin_w142_c23: x_w142_c23 + y_w142_c23 >= 0.4567
  lat_lin_w142_c24: x_w142_c24 + y_w142_c24 >= 0.1203
  demand_w142: x_w142_c0 + x_w142_c1 + x_w142_c2 + x_w142_c3 + x_w142_c4 + x_w142_c5 + x_w142_c6 + x_w142_c7 + x_w142_c8 + x_w142_c9 + x_w142_c10 + x_w142_c11 + x_w142_c12 + x_w142_c13 + x_w142_c14 + x_w142_c15 + x_w142_c16 + x_w142_c17 + x_w142_c18 + x_w142_c19 + x_w142_c20 + x_w142_c21 + x_w142_c22 + x_w142_c23 + x_w142_c24 = 9
  lat_lin_w143_c0: x_w143_c0 + y_w143_c0 >= 0.8419
  lat_lin_w143_c1: x_w143_c1 + y_w143_c1 >= 0.6731
  lat_lin_w143_c2: x_w143_c2 + y_w143_c2 >= 0.5876
  lat_lin_w143_c3: x_w143_c3 + y_w143_c3 >= 0.3433
  lat_lin_w143_c4: x_w143_c4 + y_w143_c4 >= 0.4217
  lat_lin_w143_c5: x_w143_c5 + y_w143_c5 >= 0.3466
  lat_lin_w143_c6: x_w143_c6 + y_w143_c6 >= 0.2442
  lat_lin_w143_c7: x_w143_c7 + y_w143_c7 >= 0.2204
  lat_lin_w143_c8: x_w143_c8 + y_w143_c8 >= 0.0394
  lat_lin_w143_c9: x_w143_c9 + y_w143_c9 >= 0.3627
  lat_lin_w143_c10: x_w143_c10 + y_w143_c10 >= 0.4580
  lat_lin_w143_c11: x_w143_c11 + y_w143_c11 >= 0.8619
  lat_lin_w143_c12: x_w143_c12 + y_w143_c12 >= 0.4066
  lat_lin_w143_c13: x_w143_c13 + y_w143_c13 >= 0.6395
  lat_lin_w143_c14: x_w143_c14 + y_w143_c14 >= 0.1536
  lat_lin_w143_c15: x_w143_c15 + y_w143_c15 >= 0.1435
  lat_lin_w143_c16: x_w143_c16 + y_w143_c16 >= 0.0017
  lat_lin_w143_c17: x_w143_c17 + y_w143_c17 >= 0.1195
  lat_lin_w143_c18: x_w143_c18 + y_w143_c18 >= 0.6684
  lat_lin_w143_c19: x_w143_c19 + y_w143_c19 >= 0.7749
  lat_lin_w143_c20: x_w143_c20 + y_w143_c20 >= 0.3172
  lat_lin_w143_c21: x_w143_c21 + y_w143_c21 >= 0.7978
  lat_lin_w143_c22: x_w143_c22 + y_w143_c22 >= 0.8359
  lat_lin_w143_c23: x_w143_c23 + y_w143_c23 >= 0.4991
  lat_lin_w143_c24: x_w143_c24 + y_w143_c24 >= 0.2415
  demand_w143: x_w143_c0 + x_w143_c1 + x_w143_c2 + x_w143_c3 + x_w143_c4 + x_w143_c5 + x_w143_c6 + x_w143_c7 + x_w143_c8 + x_w143_c9 + x_w143_c10 + x_w143_c11 + x_w143_c12 + x_w143_c13 + x_w143_c14 + x_w143_c15 + x_w143_c16 + x_w143_c17 + x_w143_c18 + x_w143_c19 + x_w143_c20 + x_w143_c21 + x_w143_c22 + x_w143_c23 + x_w143_c24 = 11
  lat_lin_w144_c0: x_w144_c0 + y_w144_c0 >= 0.3393
  lat_lin_w144_c1: x_w144_c1 + y_w144_c1 >= 0.1701
  lat_lin_w144_c2: x_w144_c2 + y_w144_c2 >= 0.3427
  lat_lin_w144_c3: x_w144_c3 + y_w144_c3 >= 0.0045
  lat_lin_w144_c4: x_w144_c4 + y_w144_c4 >= 0.1552
  lat_lin_w144_c5: x_w144_c5 + y_w144_c5 >= 0.3328
  lat_lin_w144_c6: x_w144_c6 + y_w144_c6 >= 0.0225
  lat_lin_w144_c7: x_w144_c7 + y_w144_c7 >= 0.0764
  lat_lin_w144_c8: x_w144_c8 + y_w144_c8 >= 0.3654
  lat_lin_w144_c9: x_w144_c9 + y_w144_c9 >= 0.3467
  lat_lin_w144_c10: x_w144_c10 + y_w144_c10 >= 0.0463
  lat_lin_w144_c11: x_w144_c11 + y_w144_c11 >= 0.4612
  lat_lin_w144_c12: x_w144_c12 + y_w144_c12 >= 0.2039
  lat_lin_w144_c13: x_w144_c13 + y_w144_c13 >= 0.1199
  lat_lin_w144_c14: x_w144_c14 + y_w144_c14 >= 0.0822
  lat_lin_w144_c15: x_w144_c15 + y_w144_c15 >= 0.0958
  lat_lin_w144_c16: x_w144_c16 + y_w144_c16 >= 0.1934
  lat_lin_w144_c17: x_w144_c17 + y_w144_c17 >= 0.4920
  lat_lin_w144_c18: x_w144_c18 + y_w144_c18 >= 0.2770
  lat_lin_w144_c19: x_w144_c19 + y_w144_c19 >= 0.0889
  lat_lin_w144_c20: x_w144_c20 + y_w144_c20 >= 0.4171
  lat_lin_w144_c21: x_w144_c21 + y_w144_c21 >= 0.0477
  lat_lin_w144_c22: x_w144_c22 + y_w144_c22 >= 0.2159
  lat_lin_w144_c23: x_w144_c23 + y_w144_c23 >= 0.0662
  lat_lin_w144_c24: x_w144_c24 + y_w144_c24 >= 0.0367
  demand_w144: x_w144_c0 + x_w144_c1 + x_w144_c2 + x_w144_c3 + x_w144_c4 + x_w144_c5 + x_w144_c6 + x_w144_c7 + x_w144_c8 + x_w144_c9 + x_w144_c10 + x_w144_c11 + x_w144_c12 + x_w144_c13 + x_w144_c14 + x_w144_c15 + x_w144_c16 + x_w144_c17 + x_w144_c18 + x_w144_c19 + x_w144_c20 + x_w144_c21 + x_w144_c22 + x_w144_c23 + x_w144_c24 = 5
  lat_lin_w145_c0: x_w145_c0 + y_w145_c0 >= 0.0773
  lat_lin_w145_c1: x_w145_c1 + y_w145_c1 >= 0.3833
  lat_lin_w145_c2: x_w145_c2 + y_w145_c2 >= 0.4576
  lat_lin_w145_c3: x_w145_c3 + y_w145_c3 >= 0.9159
  lat_lin_w145_c4: x_w145_c4 + y_w145_c4 >= 0.6529
  lat_lin_w145_c5: x_w145_c5 + y_w145_c5 >= 0.0519
  lat_lin_w145_c6: x_w145_c6 + y_w145_c6 >= 0.4200
  lat_lin_w145_c7: x_w145_c7 + y_w145_c7 >= 0.6220
  lat_lin_w145_c8: x_w145_c8 + y_w145_c8 >= 0.8809
  lat_lin_w145_c9: x_w145_c9 + y_w145_c9 >= 0.6602
  lat_lin_w145_c10: x_w145_c10 + y_w145_c10 >= 0.7078
  lat_lin_w145_c11: x_w145_c11 + y_w145_c11 >= 0.4681
  lat_lin_w145_c12: x_w145_c12 + y_w145_c12 >= 0.4133
  lat_lin_w145_c13: x_w145_c13 + y_w145_c13 >= 0.1622
  lat_lin_w145_c14: x_w145_c14 + y_w145_c14 >= 0.7068
  lat_lin_w145_c15: x_w145_c15 + y_w145_c15 >= 0.6587
  lat_lin_w145_c16: x_w145_c16 + y_w145_c16 >= 0.4651
  lat_lin_w145_c17: x_w145_c17 + y_w145_c17 >= 0.8335
  lat_lin_w145_c18: x_w145_c18 + y_w145_c18 >= 0.7067
  lat_lin_w145_c19: x_w145_c19 + y_w145_c19 >= 0.0728
  lat_lin_w145_c20: x_w145_c20 + y_w145_c20 >= 0.9638
  lat_lin_w145_c21: x_w145_c21 + y_w145_c21 >= 0.0271
  lat_lin_w145_c22: x_w145_c22 + y_w145_c22 >= 0.5257
  lat_lin_w145_c23: x_w145_c23 + y_w145_c23 >= 0.3123
  lat_lin_w145_c24: x_w145_c24 + y_w145_c24 >= 0.8542
  demand_w145: x_w145_c0 + x_w145_c1 + x_w145_c2 + x_w145_c3 + x_w145_c4 + x_w145_c5 + x_w145_c6 + x_w145_c7 + x_w145_c8 + x_w145_c9 + x_w145_c10 + x_w145_c11 + x_w145_c12 + x_w145_c13 + x_w145_c14 + x_w145_c15 + x_w145_c16 + x_w145_c17 + x_w145_c18 + x_w145_c19 + x_w145_c20 + x_w145_c21 + x_w145_c22 + x_w145_c23 + x_w145_c24 = 13
  lat_lin_w146_c0: x_w146_c0 + y_w146_c0 >= 0.2679
  lat_lin_w146_c1: x_w146_c1 + y_w146_c1 >= 0.1966
  lat_lin_w146_c2: x_w146_c2 + y_w146_c2 >= 0.0988
  lat_lin_w146_c3: x_w146_c3 + y_w146_c3 >= 0.1183
  lat_lin_w146_c4: x_w146_c4 + y_w146_c4 >= 0.5532
  lat_lin_w146_c5: x_w146_c5 + y_w146_c5 >= 0.3819
  lat_lin_w146_c6: x_w146_c6 + y_w146_c6 >= 0.3978
  lat_lin_w146_c7: x_w146_c7 + y_w146_c7 >= 0.0633
  lat_lin_w146_c8: x_w146_c8 + y_w146_c8 >= 0.5648
  lat_lin_w146_c9: x_w146_c9 + y_w146_c9 >= 0.7446
  lat_lin_w146_c10: x_w146_c10 + y_w146_c10 >= 0.6245
  lat_lin_w146_c11: x_w146_c11 + y_w146_c11 >= 0.8210
  lat_lin_w146_c12: x_w146_c12 + y_w146_c12 >= 0.4401
  lat_lin_w146_c13: x_w146_c13 + y_w146_c13 >= 0.5137
  lat_lin_w146_c14: x_w146_c14 + y_w146_c14 >= 0.7055
  lat_lin_w146_c15: x_w146_c15 + y_w146_c15 >= 0.3668
  lat_lin_w146_c16: x_w146_c16 + y_w146_c16 >= 0.8202
  lat_lin_w146_c17: x_w146_c17 + y_w146_c17 >= 0.4546
  lat_lin_w146_c18: x_w146_c18 + y_w146_c18 >= 0.1115
  lat_lin_w146_c19: x_w146_c19 + y_w146_c19 >= 0.8396
  lat_lin_w146_c20: x_w146_c20 + y_w146_c20 >= 0.8171
  lat_lin_w146_c21: x_w146_c21 + y_w146_c21 >= 0.8357
  lat_lin_w146_c22: x_w146_c22 + y_w146_c22 >= 0.2814
  lat_lin_w146_c23: x_w146_c23 + y_w146_c23 >= 0.5751
  lat_lin_w146_c24: x_w146_c24 + y_w146_c24 >= 0.4064
  demand_w146: x_w146_c0 + x_w146_c1 + x_w146_c2 + x_w146_c3 + x_w146_c4 + x_w146_c5 + x_w146_c6 + x_w146_c7 + x_w146_c8 + x_w146_c9 + x_w146_c10 + x_w146_c11 + x_w146_c12 + x_w146_c13 + x_w146_c14 + x_w146_c15 + x_w146_c16 + x_w146_c17 + x_w146_c18 + x_w146_c19 + x_w146_c20 + x_w146_c21 + x_w146_c22 + x_w146_c23 + x_w146_c24 = 12
  lat_lin_w147_c0: x_w147_c0 + y_w147_c0 >= 0.3977
  lat_lin_w147_c1: x_w147_c1 + y_w147_c1 >= 0.0126
  lat_lin_w147_c2: x_w147_c2 + y_w147_c2 >= 0.6392
  lat_lin_w147_c3: x_w147_c3 + y_w147_c3 >= 0.8947
  lat_lin_w147_c4: x_w147_c4 + y_w147_c4 >= 0.8965
  lat_lin_w147_c5: x_w147_c5 + y_w147_c5 >= 0.8072
  lat_lin_w147_c6: x_w147_c6 + y_w147_c6 >= 0.4072
  lat_lin_w147_c7: x_w147_c7 + y_w147_c7 >= 0.6766
  lat_lin_w147_c8: x_w147_c8 + y_w147_c8 >= 0.2803
  lat_lin_w147_c9: x_w147_c9 + y_w147_c9 >= 0.0841
  lat_lin_w147_c10: x_w147_c10 + y_w147_c10 >= 0.5459
  lat_lin_w147_c11: x_w147_c11 + y_w147_c11 >= 0.8258
  lat_lin_w147_c12: x_w147_c12 + y_w147_c12 >= 1.0390
  lat_lin_w147_c13: x_w147_c13 + y_w147_c13 >= 0.7042
  lat_lin_w147_c14: x_w147_c14 + y_w147_c14 >= 0.4406
  lat_lin_w147_c15: x_w147_c15 + y_w147_c15 >= 0.8129
  lat_lin_w147_c16: x_w147_c16 + y_w147_c16 >= 0.5608
  lat_lin_w147_c17: x_w147_c17 + y_w147_c17 >= 0.0155
  lat_lin_w147_c18: x_w147_c18 + y_w147_c18 >= 1.1584
  lat_lin_w147_c19: x_w147_c19 + y_w147_c19 >= 0.6150
  lat_lin_w147_c20: x_w147_c20 + y_w147_c20 >= 0.5912
  lat_lin_w147_c21: x_w147_c21 + y_w147_c21 >= 0.1957
  lat_lin_w147_c22: x_w147_c22 + y_w147_c22 >= 0.7863
  lat_lin_w147_c23: x_w147_c23 + y_w147_c23 >= 0.5757
  lat_lin_w147_c24: x_w147_c24 + y_w147_c24 >= 1.0370
  demand_w147: x_w147_c0 + x_w147_c1 + x_w147_c2 + x_w147_c3 + x_w147_c4 + x_w147_c5 + x_w147_c6 + x_w147_c7 + x_w147_c8 + x_w147_c9 + x_w147_c10 + x_w147_c11 + x_w147_c12 + x_w147_c13 + x_w147_c14 + x_w147_c15 + x_w147_c16 + x_w147_c17 + x_w147_c18 + x_w147_c19 + x_w147_c20 + x_w147_c21 + x_w147_c22 + x_w147_c23 + x_w147_c24 = 15
  lat_lin_w148_c0: x_w148_c0 + y_w148_c0 >= 0.6875
  lat_lin_w148_c1: x_w148_c1 + y_w148_c1 >= 0.9337
  lat_lin_w148_c2: x_w148_c2 + y_w148_c2 >= 0.7351
  lat_lin_w148_c3: x_w148_c3 + y_w148_c3 >= 0.2095
  lat_lin_w148_c4: x_w148_c4 + y_w148_c4 >= 0.3222
  lat_lin_w148_c5: x_w148_c5 + y_w148_c5 >= 0.8239
  lat_lin_w148_c6: x_w148_c6 + y_w148_c6 >= 0.6315
  lat_lin_w148_c7: x_w148_c7 + y_w148_c7 >= 0.0959
  lat_lin_w148_c8: x_w148_c8 + y_w148_c8 >= 0.4099
  lat_lin_w148_c9: x_w148_c9 + y_w148_c9 >= 0.4171
  lat_lin_w148_c10: x_w148_c10 + y_w148_c10 >= 0.4955
  lat_lin_w148_c11: x_w148_c11 + y_w148_c11 >= 0.6396
  lat_lin_w148_c12: x_w148_c12 + y_w148_c12 >= 1.1558
  lat_lin_w148_c13: x_w148_c13 + y_w148_c13 >= 0.7459
  lat_lin_w148_c14: x_w148_c14 + y_w148_c14 >= 0.9935
  lat_lin_w148_c15: x_w148_c15 + y_w148_c15 >= 0.1554
  lat_lin_w148_c16: x_w148_c16 + y_w148_c16 >= 0.3979
  lat_lin_w148_c17: x_w148_c17 + y_w148_c17 >= 1.0504
  lat_lin_w148_c18: x_w148_c18 + y_w148_c18 >= 0.1754
  lat_lin_w148_c19: x_w148_c19 + y_w148_c19 >= 0.3432
  lat_lin_w148_c20: x_w148_c20 + y_w148_c20 >= 1.1376
  lat_lin_w148_c21: x_w148_c21 + y_w148_c21 >= 0.4765
  lat_lin_w148_c22: x_w148_c22 + y_w148_c22 >= 0.2977
  lat_lin_w148_c23: x_w148_c23 + y_w148_c23 >= 0.6472
  lat_lin_w148_c24: x_w148_c24 + y_w148_c24 >= 1.0220
  demand_w148: x_w148_c0 + x_w148_c1 + x_w148_c2 + x_w148_c3 + x_w148_c4 + x_w148_c5 + x_w148_c6 + x_w148_c7 + x_w148_c8 + x_w148_c9 + x_w148_c10 + x_w148_c11 + x_w148_c12 + x_w148_c13 + x_w148_c14 + x_w148_c15 + x_w148_c16 + x_w148_c17 + x_w148_c18 + x_w148_c19 + x_w148_c20 + x_w148_c21 + x_w148_c22 + x_w148_c23 + x_w148_c24 = 15
  lat_lin_w149_c0: x_w149_c0 + y_w149_c0 >= 0.2932
  lat_lin_w149_c1: x_w149_c1 + y_w149_c1 >= 0.3669
  lat_lin_w149_c2: x_w149_c2 + y_w149_c2 >= 0.4205
  lat_lin_w149_c3: x_w149_c3 + y_w149_c3 >= 1.0028
  lat_lin_w149_c4: x_w149_c4 + y_w149_c4 >= 0.2427
  lat_lin_w149_c5: x_w149_c5 + y_w149_c5 >= 0.2994
  lat_lin_w149_c6: x_w149_c6 + y_w149_c6 >= 0.4213
  lat_lin_w149_c7: x_w149_c7 + y_w149_c7 >= 0.7356
  lat_lin_w149_c8: x_w149_c8 + y_w149_c8 >= 0.1885
  lat_lin_w149_c9: x_w149_c9 + y_w149_c9 >= 0.2691
  lat_lin_w149_c10: x_w149_c10 + y_w149_c10 >= 0.7675
  lat_lin_w149_c11: x_w149_c11 + y_w149_c11 >= 0.4929
  lat_lin_w149_c12: x_w149_c12 + y_w149_c12 >= 0.0588
  lat_lin_w149_c13: x_w149_c13 + y_w149_c13 >= 0.8775
  lat_lin_w149_c14: x_w149_c14 + y_w149_c14 >= 0.2316
  lat_lin_w149_c15: x_w149_c15 + y_w149_c15 >= 0.7344
  lat_lin_w149_c16: x_w149_c16 + y_w149_c16 >= 0.8179
  lat_lin_w149_c17: x_w149_c17 + y_w149_c17 >= 0.7624
  lat_lin_w149_c18: x_w149_c18 + y_w149_c18 >= 0.4261
  lat_lin_w149_c19: x_w149_c19 + y_w149_c19 >= 1.0508
  lat_lin_w149_c20: x_w149_c20 + y_w149_c20 >= 0.1069
  lat_lin_w149_c21: x_w149_c21 + y_w149_c21 >= 1.0830
  lat_lin_w149_c22: x_w149_c22 + y_w149_c22 >= 0.0799
  lat_lin_w149_c23: x_w149_c23 + y_w149_c23 >= 0.2857
  lat_lin_w149_c24: x_w149_c24 + y_w149_c24 >= 0.9846
  demand_w149: x_w149_c0 + x_w149_c1 + x_w149_c2 + x_w149_c3 + x_w149_c4 + x_w149_c5 + x_w149_c6 + x_w149_c7 + x_w149_c8 + x_w149_c9 + x_w149_c10 + x_w149_c11 + x_w149_c12 + x_w149_c13 + x_w149_c14 + x_w149_c15 + x_w149_c16 + x_w149_c17 + x_w149_c18 + x_w149_c19 + x_w149_c20 + x_w149_c21 + x_w149_c22 + x_w149_c23 + x_w149_c24 = 13
  lat_lin_w150_c0: x_w150_c0 + y_w150_c0 >= 0.2695
  lat_lin_w150_c1: x_w150_c1 + y_w150_c1 >= 0.2724
  lat_lin_w150_c2: x_w150_c2 + y_w150_c2 >= 0.5994
  lat_lin_w150_c3: x_w150_c3 + y_w150_c3 >= 0.6594
  lat_lin_w150_c4: x_w150_c4 + y_w150_c4 >= 0.3549
  lat_lin_w150_c5: x_w150_c5 + y_w150_c5 >= 0.2974
  lat_lin_w150_c6: x_w150_c6 + y_w150_c6 >= 0.1333
  lat_lin_w150_c7: x_w150_c7 + y_w150_c7 >= 0.7200
  lat_lin_w150_c8: x_w150_c8 + y_w150_c8 >= 0.5979
  lat_lin_w150_c9: x_w150_c9 + y_w150_c9 >= 0.3726
  lat_lin_w150_c10: x_w150_c10 + y_w150_c10 >= 0.6702
  lat_lin_w150_c11: x_w150_c11 + y_w150_c11 >= 0.7539
  lat_lin_w150_c12: x_w150_c12 + y_w150_c12 >= 0.7261
  lat_lin_w150_c13: x_w150_c13 + y_w150_c13 >= 0.1374
  lat_lin_w150_c14: x_w150_c14 + y_w150_c14 >= 0.0027
  lat_lin_w150_c15: x_w150_c15 + y_w150_c15 >= 0.1795
  lat_lin_w150_c16: x_w150_c16 + y_w150_c16 >= 0.7131
  lat_lin_w150_c17: x_w150_c17 + y_w150_c17 >= 0.4288
  lat_lin_w150_c18: x_w150_c18 + y_w150_c18 >= 0.0247
  lat_lin_w150_c19: x_w150_c19 + y_w150_c19 >= 0.1144
  lat_lin_w150_c20: x_w150_c20 + y_w150_c20 >= 0.4605
  lat_lin_w150_c21: x_w150_c21 + y_w150_c21 >= 0.2627
  lat_lin_w150_c22: x_w150_c22 + y_w150_c22 >= 0.3898
  lat_lin_w150_c23: x_w150_c23 + y_w150_c23 >= 0.6608
  lat_lin_w150_c24: x_w150_c24 + y_w150_c24 >= 0.1984
  demand_w150: x_w150_c0 + x_w150_c1 + x_w150_c2 + x_w150_c3 + x_w150_c4 + x_w150_c5 + x_w150_c6 + x_w150_c7 + x_w150_c8 + x_w150_c9 + x_w150_c10 + x_w150_c11 + x_w150_c12 + x_w150_c13 + x_w150_c14 + x_w150_c15 + x_w150_c16 + x_w150_c17 + x_w150_c18 + x_w150_c19 + x_w150_c20 + x_w150_c21 + x_w150_c22 + x_w150_c23 + x_w150_c24 = 10
  lat_lin_w151_c0: x_w151_c0 + y_w151_c0 >= 0.5730
  lat_lin_w151_c1: x_w151_c1 + y_w151_c1 >= 0.5610
  lat_lin_w151_c2: x_w151_c2 + y_w151_c2 >= 0.7880
  lat_lin_w151_c3: x_w151_c3 + y_w151_c3 >= 0.4563
  lat_lin_w151_c4: x_w151_c4 + y_w151_c4 >= 0.4780
  lat_lin_w151_c5: x_w151_c5 + y_w151_c5 >= 0.6093
  lat_lin_w151_c6: x_w151_c6 + y_w151_c6 >= 0.1899
  lat_lin_w151_c7: x_w151_c7 + y_w151_c7 >= 0.3850
  lat_lin_w151_c8: x_w151_c8 + y_w151_c8 >= 0.4159
  lat_lin_w151_c9: x_w151_c9 + y_w151_c9 >= 0.0397
  lat_lin_w151_c10: x_w151_c10 + y_w151_c10 >= 0.6279
  lat_lin_w151_c11: x_w151_c11 + y_w151_c11 >= 0.5282
  lat_lin_w151_c12: x_w151_c12 + y_w151_c12 >= 0.6333
  lat_lin_w151_c13: x_w151_c13 + y_w151_c13 >= 0.7932
  lat_lin_w151_c14: x_w151_c14 + y_w151_c14 >= 0.7653
  lat_lin_w151_c15: x_w151_c15 + y_w151_c15 >= 0.1773
  lat_lin_w151_c16: x_w151_c16 + y_w151_c16 >= 0.7711
  lat_lin_w151_c17: x_w151_c17 + y_w151_c17 >= 0.4898
  lat_lin_w151_c18: x_w151_c18 + y_w151_c18 >= 0.7966
  lat_lin_w151_c19: x_w151_c19 + y_w151_c19 >= 0.5128
  lat_lin_w151_c20: x_w151_c20 + y_w151_c20 >= 0.5878
  lat_lin_w151_c21: x_w151_c21 + y_w151_c21 >= 0.1699
  lat_lin_w151_c22: x_w151_c22 + y_w151_c22 >= 0.6630
  lat_lin_w151_c23: x_w151_c23 + y_w151_c23 >= 0.4215
  lat_lin_w151_c24: x_w151_c24 + y_w151_c24 >= 0.5662
  demand_w151: x_w151_c0 + x_w151_c1 + x_w151_c2 + x_w151_c3 + x_w151_c4 + x_w151_c5 + x_w151_c6 + x_w151_c7 + x_w151_c8 + x_w151_c9 + x_w151_c10 + x_w151_c11 + x_w151_c12 + x_w151_c13 + x_w151_c14 + x_w151_c15 + x_w151_c16 + x_w151_c17 + x_w151_c18 + x_w151_c19 + x_w151_c20 + x_w151_c21 + x_w151_c22 + x_w151_c23 + x_w151_c24 = 13
  lat_lin_w152_c0: x_w152_c0 + y_w152_c0 >= 0.2333
  lat_lin_w152_c1: x_w152_c1 + y_w152_c1 >= 0.1662
  lat_lin_w152_c2: x_w152_c2 + y_w152_c2 >= 0.1856
  lat_lin_w152_c3: x_w152_c3 + y_w152_c3 >= 0.1689
  lat_lin_w152_c4: x_w152_c4 + y_w152_c4 >= 0.3334
  lat_lin_w152_c5: x_w152_c5 + y_w152_c5 >= 0.0613
  lat_lin_w152_c6: x_w152_c6 + y_w152_c6 >= 0.3839
  lat_lin_w152_c7: x_w152_c7 + y_w152_c7 >= 0.0399
  lat_lin_w152_c8: x_w152_c8 + y_w152_c8 >= 0.0846
  lat_lin_w152_c9: x_w152_c9 + y_w152_c9 >= 0.0239
  lat_lin_w152_c10: x_w152_c10 + y_w152_c10 >= 0.0299
  lat_lin_w152_c11: x_w152_c11 + y_w152_c11 >= 0.1764
  lat_lin_w152_c12: x_w152_c12 + y_w152_c12 >= 0.2432
  lat_lin_w152_c13: x_w152_c13 + y_w152_c13 >= 0.2830
  lat_lin_w152_c14: x_w152_c14 + y_w152_c14 >= 0.1244
  lat_lin_w152_c15: x_w152_c15 + y_w152_c15 >= 0.0814
  lat_lin_w152_c16: x_w152_c16 + y_w152_c16 >= 0.0738
  lat_lin_w152_c17: x_w152_c17 + y_w152_c17 >= 0.3634
  lat_lin_w152_c18: x_w152_c18 + y_w152_c18 >= 0.0437
  lat_lin_w152_c19: x_w152_c19 + y_w152_c19 >= 0.0491
  lat_lin_w152_c20: x_w152_c20 + y_w152_c20 >= 0.0229
  lat_lin_w152_c21: x_w152_c21 + y_w152_c21 >= 0.3606
  lat_lin_w152_c22: x_w152_c22 + y_w152_c22 >= 0.0437
  lat_lin_w152_c23: x_w152_c23 + y_w152_c23 >= 0.1807
  lat_lin_w152_c24: x_w152_c24 + y_w152_c24 >= 0.2429
  demand_w152: x_w152_c0 + x_w152_c1 + x_w152_c2 + x_w152_c3 + x_w152_c4 + x_w152_c5 + x_w152_c6 + x_w152_c7 + x_w152_c8 + x_w152_c9 + x_w152_c10 + x_w152_c11 + x_w152_c12 + x_w152_c13 + x_w152_c14 + x_w152_c15 + x_w152_c16 + x_w152_c17 + x_w152_c18 + x_w152_c19 + x_w152_c20 + x_w152_c21 + x_w152_c22 + x_w152_c23 + x_w152_c24 = 4
  lat_lin_w153_c0: x_w153_c0 + y_w153_c0 >= 0.1265
  lat_lin_w153_c1: x_w153_c1 + y_w153_c1 >= 0.0900
  lat_lin_w153_c2: x_w153_c2 + y_w153_c2 >= 0.0986
  lat_lin_w153_c3: x_w153_c3 + y_w153_c3 >= 0.1888
  lat_lin_w153_c4: x_w153_c4 + y_w153_c4 >= 0.1677
  lat_lin_w153_c5: x_w153_c5 + y_w153_c5 >= 0.2385
  lat_lin_w153_c6: x_w153_c6 + y_w153_c6 >= 0.1318
  lat_lin_w153_c7: x_w153_c7 + y_w153_c7 >= 0.0992
  lat_lin_w153_c8: x_w153_c8 + y_w153_c8 >= 0.0077
  lat_lin_w153_c9: x_w153_c9 + y_w153_c9 >= 0.2562
  lat_lin_w153_c10: x_w153_c10 + y_w153_c10 >= 0.1171
  lat_lin_w153_c11: x_w153_c11 + y_w153_c11 >= 0.1285
  lat_lin_w153_c12: x_w153_c12 + y_w153_c12 >= 0.0033
  lat_lin_w153_c13: x_w153_c13 + y_w153_c13 >= 0.0144
  lat_lin_w153_c14: x_w153_c14 + y_w153_c14 >= 0.0329
  lat_lin_w153_c15: x_w153_c15 + y_w153_c15 >= 0.2728
  lat_lin_w153_c16: x_w153_c16 + y_w153_c16 >= 0.2001
  lat_lin_w153_c17: x_w153_c17 + y_w153_c17 >= 0.1178
  lat_lin_w153_c18: x_w153_c18 + y_w153_c18 >= 0.0075
  lat_lin_w153_c19: x_w153_c19 + y_w153_c19 >= 0.0089
  lat_lin_w153_c20: x_w153_c20 + y_w153_c20 >= 0.1494
  lat_lin_w153_c21: x_w153_c21 + y_w153_c21 >= 0.1699
  lat_lin_w153_c22: x_w153_c22 + y_w153_c22 >= 0.2314
  lat_lin_w153_c23: x_w153_c23 + y_w153_c23 >= 0.0870
  lat_lin_w153_c24: x_w153_c24 + y_w153_c24 >= 0.0542
  demand_w153: x_w153_c0 + x_w153_c1 + x_w153_c2 + x_w153_c3 + x_w153_c4 + x_w153_c5 + x_w153_c6 + x_w153_c7 + x_w153_c8 + x_w153_c9 + x_w153_c10 + x_w153_c11 + x_w153_c12 + x_w153_c13 + x_w153_c14 + x_w153_c15 + x_w153_c16 + x_w153_c17 + x_w153_c18 + x_w153_c19 + x_w153_c20 + x_w153_c21 + x_w153_c22 + x_w153_c23 + x_w153_c24 = 3
  lat_lin_w154_c0: x_w154_c0 + y_w154_c0 >= 0.2262
  lat_lin_w154_c1: x_w154_c1 + y_w154_c1 >= 0.6551
  lat_lin_w154_c2: x_w154_c2 + y_w154_c2 >= 0.6261
  lat_lin_w154_c3: x_w154_c3 + y_w154_c3 >= 0.1950
  lat_lin_w154_c4: x_w154_c4 + y_w154_c4 >= 0.2723
  lat_lin_w154_c5: x_w154_c5 + y_w154_c5 >= 0.6328
  lat_lin_w154_c6: x_w154_c6 + y_w154_c6 >= 0.2438
  lat_lin_w154_c7: x_w154_c7 + y_w154_c7 >= 0.2553
  lat_lin_w154_c8: x_w154_c8 + y_w154_c8 >= 0.4602
  lat_lin_w154_c9: x_w154_c9 + y_w154_c9 >= 0.4538
  lat_lin_w154_c10: x_w154_c10 + y_w154_c10 >= 0.0561
  lat_lin_w154_c11: x_w154_c11 + y_w154_c11 >= 0.6987
  lat_lin_w154_c12: x_w154_c12 + y_w154_c12 >= 0.0908
  lat_lin_w154_c13: x_w154_c13 + y_w154_c13 >= 0.3196
  lat_lin_w154_c14: x_w154_c14 + y_w154_c14 >= 0.0897
  lat_lin_w154_c15: x_w154_c15 + y_w154_c15 >= 0.4481
  lat_lin_w154_c16: x_w154_c16 + y_w154_c16 >= 0.5944
  lat_lin_w154_c17: x_w154_c17 + y_w154_c17 >= 0.0020
  lat_lin_w154_c18: x_w154_c18 + y_w154_c18 >= 0.6563
  lat_lin_w154_c19: x_w154_c19 + y_w154_c19 >= 0.1624
  lat_lin_w154_c20: x_w154_c20 + y_w154_c20 >= 0.6172
  lat_lin_w154_c21: x_w154_c21 + y_w154_c21 >= 0.4733
  lat_lin_w154_c22: x_w154_c22 + y_w154_c22 >= 0.6126
  lat_lin_w154_c23: x_w154_c23 + y_w154_c23 >= 0.6609
  lat_lin_w154_c24: x_w154_c24 + y_w154_c24 >= 0.4974
  demand_w154: x_w154_c0 + x_w154_c1 + x_w154_c2 + x_w154_c3 + x_w154_c4 + x_w154_c5 + x_w154_c6 + x_w154_c7 + x_w154_c8 + x_w154_c9 + x_w154_c10 + x_w154_c11 + x_w154_c12 + x_w154_c13 + x_w154_c14 + x_w154_c15 + x_w154_c16 + x_w154_c17 + x_w154_c18 + x_w154_c19 + x_w154_c20 + x_w154_c21 + x_w154_c22 + x_w154_c23 + x_w154_c24 = 10
  lat_lin_w155_c0: x_w155_c0 + y_w155_c0 >= 0.6157
  lat_lin_w155_c1: x_w155_c1 + y_w155_c1 >= 0.5505
  lat_lin_w155_c2: x_w155_c2 + y_w155_c2 >= 0.4855
  lat_lin_w155_c3: x_w155_c3 + y_w155_c3 >= 0.3904
  lat_lin_w155_c4: x_w155_c4 + y_w155_c4 >= 0.3627
  lat_lin_w155_c5: x_w155_c5 + y_w155_c5 >= 0.3961
  lat_lin_w155_c6: x_w155_c6 + y_w155_c6 >= 0.1941
  lat_lin_w155_c7: x_w155_c7 + y_w155_c7 >= 0.0861
  lat_lin_w155_c8: x_w155_c8 + y_w155_c8 >= 0.2322
  lat_lin_w155_c9: x_w155_c9 + y_w155_c9 >= 0.4399
  lat_lin_w155_c10: x_w155_c10 + y_w155_c10 >= 0.2624
  lat_lin_w155_c11: x_w155_c11 + y_w155_c11 >= 0.5110
  lat_lin_w155_c12: x_w155_c12 + y_w155_c12 >= 0.3592
  lat_lin_w155_c13: x_w155_c13 + y_w155_c13 >= 0.1286
  lat_lin_w155_c14: x_w155_c14 + y_w155_c14 >= 0.5100
  lat_lin_w155_c15: x_w155_c15 + y_w155_c15 >= 0.0675
  lat_lin_w155_c16: x_w155_c16 + y_w155_c16 >= 0.5653
  lat_lin_w155_c17: x_w155_c17 + y_w155_c17 >= 0.4342
  lat_lin_w155_c18: x_w155_c18 + y_w155_c18 >= 0.2596
  lat_lin_w155_c19: x_w155_c19 + y_w155_c19 >= 0.6513
  lat_lin_w155_c20: x_w155_c20 + y_w155_c20 >= 0.4102
  lat_lin_w155_c21: x_w155_c21 + y_w155_c21 >= 0.4720
  lat_lin_w155_c22: x_w155_c22 + y_w155_c22 >= 0.2696
  lat_lin_w155_c23: x_w155_c23 + y_w155_c23 >= 0.0802
  lat_lin_w155_c24: x_w155_c24 + y_w155_c24 >= 0.2659
  demand_w155: x_w155_c0 + x_w155_c1 + x_w155_c2 + x_w155_c3 + x_w155_c4 + x_w155_c5 + x_w155_c6 + x_w155_c7 + x_w155_c8 + x_w155_c9 + x_w155_c10 + x_w155_c11 + x_w155_c12 + x_w155_c13 + x_w155_c14 + x_w155_c15 + x_w155_c16 + x_w155_c17 + x_w155_c18 + x_w155_c19 + x_w155_c20 + x_w155_c21 + x_w155_c22 + x_w155_c23 + x_w155_c24 = 9
  lat_lin_w156_c0: x_w156_c0 + y_w156_c0 >= 0.4420
  lat_lin_w156_c1: x_w156_c1 + y_w156_c1 >= 0.4783
  lat_lin_w156_c2: x_w156_c2 + y_w156_c2 >= 0.5996
  lat_lin_w156_c3: x_w156_c3 + y_w156_c3 >= 0.2219
  lat_lin_w156_c4: x_w156_c4 + y_w156_c4 >= 0.0365
  lat_lin_w156_c5: x_w156_c5 + y_w156_c5 >= 0.2178
  lat_lin_w156_c6: x_w156_c6 + y_w156_c6 >= 0.3595
  lat_lin_w156_c7: x_w156_c7 + y_w156_c7 >= 0.0148
  lat_lin_w156_c8: x_w156_c8 + y_w156_c8 >= 0.2651
  lat_lin_w156_c9: x_w156_c9 + y_w156_c9 >= 0.4016
  lat_lin_w156_c10: x_w156_c10 + y_w156_c10 >= 0.0286
  lat_lin_w156_c11: x_w156_c11 + y_w156_c11 >= 0.2467
  lat_lin_w156_c12: x_w156_c12 + y_w156_c12 >= 0.1918
  lat_lin_w156_c13: x_w156_c13 + y_w156_c13 >= 0.0172
  lat_lin_w156_c14: x_w156_c14 + y_w156_c14 >= 0.2789
  lat_lin_w156_c15: x_w156_c15 + y_w156_c15 >= 0.2655
  lat_lin_w156_c16: x_w156_c16 + y_w156_c16 >= 0.5852
  lat_lin_w156_c17: x_w156_c17 + y_w156_c17 >= 0.2737
  lat_lin_w156_c18: x_w156_c18 + y_w156_c18 >= 0.4532
  lat_lin_w156_c19: x_w156_c19 + y_w156_c19 >= 0.4532
  lat_lin_w156_c20: x_w156_c20 + y_w156_c20 >= 0.0287
  lat_lin_w156_c21: x_w156_c21 + y_w156_c21 >= 0.3359
  lat_lin_w156_c22: x_w156_c22 + y_w156_c22 >= 0.3078
  lat_lin_w156_c23: x_w156_c23 + y_w156_c23 >= 0.2023
  lat_lin_w156_c24: x_w156_c24 + y_w156_c24 >= 0.2942
  demand_w156: x_w156_c0 + x_w156_c1 + x_w156_c2 + x_w156_c3 + x_w156_c4 + x_w156_c5 + x_w156_c6 + x_w156_c7 + x_w156_c8 + x_w156_c9 + x_w156_c10 + x_w156_c11 + x_w156_c12 + x_w156_c13 + x_w156_c14 + x_w156_c15 + x_w156_c16 + x_w156_c17 + x_w156_c18 + x_w156_c19 + x_w156_c20 + x_w156_c21 + x_w156_c22 + x_w156_c23 + x_w156_c24 = 7
  lat_lin_w157_c0: x_w157_c0 + y_w157_c0 >= 0.1082
  lat_lin_w157_c1: x_w157_c1 + y_w157_c1 >= 0.2675
  lat_lin_w157_c2: x_w157_c2 + y_w157_c2 >= 0.0495
  lat_lin_w157_c3: x_w157_c3 + y_w157_c3 >= 0.1814
  lat_lin_w157_c4: x_w157_c4 + y_w157_c4 >= 0.1974
  lat_lin_w157_c5: x_w157_c5 + y_w157_c5 >= 0.0120
  lat_lin_w157_c6: x_w157_c6 + y_w157_c6 >= 0.1544
  lat_lin_w157_c7: x_w157_c7 + y_w157_c7 >= 0.3792
  lat_lin_w157_c8: x_w157_c8 + y_w157_c8 >= 0.1839
  lat_lin_w157_c9: x_w157_c9 + y_w157_c9 >= 0.2846
  lat_lin_w157_c10: x_w157_c10 + y_w157_c10 >= 0.0466
  lat_lin_w157_c11: x_w157_c11 + y_w157_c11 >= 0.2967
  lat_lin_w157_c12: x_w157_c12 + y_w157_c12 >= 0.2584
  lat_lin_w157_c13: x_w157_c13 + y_w157_c13 >= 0.2805
  lat_lin_w157_c14: x_w157_c14 + y_w157_c14 >= 0.3959
  lat_lin_w157_c15: x_w157_c15 + y_w157_c15 >= 0.2320
  lat_lin_w157_c16: x_w157_c16 + y_w157_c16 >= 0.0703
  lat_lin_w157_c17: x_w157_c17 + y_w157_c17 >= 0.1215
  lat_lin_w157_c18: x_w157_c18 + y_w157_c18 >= 0.3979
  lat_lin_w157_c19: x_w157_c19 + y_w157_c19 >= 0.2019
  lat_lin_w157_c20: x_w157_c20 + y_w157_c20 >= 0.0359
  lat_lin_w157_c21: x_w157_c21 + y_w157_c21 >= 0.3680
  lat_lin_w157_c22: x_w157_c22 + y_w157_c22 >= 0.0029
  lat_lin_w157_c23: x_w157_c23 + y_w157_c23 >= 0.2906
  lat_lin_w157_c24: x_w157_c24 + y_w157_c24 >= 0.1827
  demand_w157: x_w157_c0 + x_w157_c1 + x_w157_c2 + x_w157_c3 + x_w157_c4 + x_w157_c5 + x_w157_c6 + x_w157_c7 + x_w157_c8 + x_w157_c9 + x_w157_c10 + x_w157_c11 + x_w157_c12 + x_w157_c13 + x_w157_c14 + x_w157_c15 + x_w157_c16 + x_w157_c17 + x_w157_c18 + x_w157_c19 + x_w157_c20 + x_w157_c21 + x_w157_c22 + x_w157_c23 + x_w157_c24 = 5
  lat_lin_w158_c0: x_w158_c0 + y_w158_c0 >= 0.1770
  lat_lin_w158_c1: x_w158_c1 + y_w158_c1 >= 0.3585
  lat_lin_w158_c2: x_w158_c2 + y_w158_c2 >= 0.3947
  lat_lin_w158_c3: x_w158_c3 + y_w158_c3 >= 0.1769
  lat_lin_w158_c4: x_w158_c4 + y_w158_c4 >= 0.4095
  lat_lin_w158_c5: x_w158_c5 + y_w158_c5 >= 0.0724
  lat_lin_w158_c6: x_w158_c6 + y_w158_c6 >= 0.1756
  lat_lin_w158_c7: x_w158_c7 + y_w158_c7 >= 0.2994
  lat_lin_w158_c8: x_w158_c8 + y_w158_c8 >= 0.1773
  lat_lin_w158_c9: x_w158_c9 + y_w158_c9 >= 0.2256
  lat_lin_w158_c10: x_w158_c10 + y_w158_c10 >= 0.5165
  lat_lin_w158_c11: x_w158_c11 + y_w158_c11 >= 0.0818
  lat_lin_w158_c12: x_w158_c12 + y_w158_c12 >= 0.0223
  lat_lin_w158_c13: x_w158_c13 + y_w158_c13 >= 0.0163
  lat_lin_w158_c14: x_w158_c14 + y_w158_c14 >= 0.4283
  lat_lin_w158_c15: x_w158_c15 + y_w158_c15 >= 0.0117
  lat_lin_w158_c16: x_w158_c16 + y_w158_c16 >= 0.4014
  lat_lin_w158_c17: x_w158_c17 + y_w158_c17 >= 0.2630
  lat_lin_w158_c18: x_w158_c18 + y_w158_c18 >= 0.0891
  lat_lin_w158_c19: x_w158_c19 + y_w158_c19 >= 0.1127
  lat_lin_w158_c20: x_w158_c20 + y_w158_c20 >= 0.4856
  lat_lin_w158_c21: x_w158_c21 + y_w158_c21 >= 0.2989
  lat_lin_w158_c22: x_w158_c22 + y_w158_c22 >= 0.0921
  lat_lin_w158_c23: x_w158_c23 + y_w158_c23 >= 0.1560
  lat_lin_w158_c24: x_w158_c24 + y_w158_c24 >= 0.5574
  demand_w158: x_w158_c0 + x_w158_c1 + x_w158_c2 + x_w158_c3 + x_w158_c4 + x_w158_c5 + x_w158_c6 + x_w158_c7 + x_w158_c8 + x_w158_c9 + x_w158_c10 + x_w158_c11 + x_w158_c12 + x_w158_c13 + x_w158_c14 + x_w158_c15 + x_w158_c16 + x_w158_c17 + x_w158_c18 + x_w158_c19 + x_w158_c20 + x_w158_c21 + x_w158_c22 + x_w158_c23 + x_w158_c24 = 6
  lat_lin_w159_c0: x_w159_c0 + y_w159_c0 >= 0.1341
  lat_lin_w159_c1: x_w159_c1 + y_w159_c1 >= 0.6856
  lat_lin_w159_c2: x_w159_c2 + y_w159_c2 >= 0.5750
  lat_lin_w159_c3: x_w159_c3 + y_w159_c3 >= 0.5222
  lat_lin_w159_c4: x_w159_c4 + y_w159_c4 >= 0.5276
  lat_lin_w159_c5: x_w159_c5 + y_w159_c5 >= 0.3260
  lat_lin_w159_c6: x_w159_c6 + y_w159_c6 >= 0.5952
  lat_lin_w159_c7: x_w159_c7 + y_w159_c7 >= 0.0910
  lat_lin_w159_c8: x_w159_c8 + y_w159_c8 >= 0.3876
  lat_lin_w159_c9: x_w159_c9 + y_w159_c9 >= 0.4457
  lat_lin_w159_c10: x_w159_c10 + y_w159_c10 >= 0.4365
  lat_lin_w159_c11: x_w159_c11 + y_w159_c11 >= 0.0434
  lat_lin_w159_c12: x_w159_c12 + y_w159_c12 >= 0.3633
  lat_lin_w159_c13: x_w159_c13 + y_w159_c13 >= 0.2633
  lat_lin_w159_c14: x_w159_c14 + y_w159_c14 >= 0.2293
  lat_lin_w159_c15: x_w159_c15 + y_w159_c15 >= 0.6343
  lat_lin_w159_c16: x_w159_c16 + y_w159_c16 >= 0.3008
  lat_lin_w159_c17: x_w159_c17 + y_w159_c17 >= 0.3404
  lat_lin_w159_c18: x_w159_c18 + y_w159_c18 >= 0.3926
  lat_lin_w159_c19: x_w159_c19 + y_w159_c19 >= 0.5864
  lat_lin_w159_c20: x_w159_c20 + y_w159_c20 >= 0.1769
  lat_lin_w159_c21: x_w159_c21 + y_w159_c21 >= 0.2932
  lat_lin_w159_c22: x_w159_c22 + y_w159_c22 >= 0.2893
  lat_lin_w159_c23: x_w159_c23 + y_w159_c23 >= 0.3418
  lat_lin_w159_c24: x_w159_c24 + y_w159_c24 >= 0.0185
  demand_w159: x_w159_c0 + x_w159_c1 + x_w159_c2 + x_w159_c3 + x_w159_c4 + x_w159_c5 + x_w159_c6 + x_w159_c7 + x_w159_c8 + x_w159_c9 + x_w159_c10 + x_w159_c11 + x_w159_c12 + x_w159_c13 + x_w159_c14 + x_w159_c15 + x_w159_c16 + x_w159_c17 + x_w159_c18 + x_w159_c19 + x_w159_c20 + x_w159_c21 + x_w159_c22 + x_w159_c23 + x_w159_c24 = 9
  lat_lin_w160_c0: x_w160_c0 + y_w160_c0 >= 0.5276
  lat_lin_w160_c1: x_w160_c1 + y_w160_c1 >= 0.1008
  lat_lin_w160_c2: x_w160_c2 + y_w160_c2 >= 0.3819
  lat_lin_w160_c3: x_w160_c3 + y_w160_c3 >= 0.2448
  lat_lin_w160_c4: x_w160_c4 + y_w160_c4 >= 0.5398
  lat_lin_w160_c5: x_w160_c5 + y_w160_c5 >= 1.1215
  lat_lin_w160_c6: x_w160_c6 + y_w160_c6 >= 1.0236
  lat_lin_w160_c7: x_w160_c7 + y_w160_c7 >= 0.3170
  lat_lin_w160_c8: x_w160_c8 + y_w160_c8 >= 0.0125
  lat_lin_w160_c9: x_w160_c9 + y_w160_c9 >= 0.8380
  lat_lin_w160_c10: x_w160_c10 + y_w160_c10 >= 0.3374
  lat_lin_w160_c11: x_w160_c11 + y_w160_c11 >= 0.7978
  lat_lin_w160_c12: x_w160_c12 + y_w160_c12 >= 0.1046
  lat_lin_w160_c13: x_w160_c13 + y_w160_c13 >= 0.4349
  lat_lin_w160_c14: x_w160_c14 + y_w160_c14 >= 1.0599
  lat_lin_w160_c15: x_w160_c15 + y_w160_c15 >= 0.3575
  lat_lin_w160_c16: x_w160_c16 + y_w160_c16 >= 0.6825
  lat_lin_w160_c17: x_w160_c17 + y_w160_c17 >= 0.2624
  lat_lin_w160_c18: x_w160_c18 + y_w160_c18 >= 0.3738
  lat_lin_w160_c19: x_w160_c19 + y_w160_c19 >= 0.4280
  lat_lin_w160_c20: x_w160_c20 + y_w160_c20 >= 0.3604
  lat_lin_w160_c21: x_w160_c21 + y_w160_c21 >= 1.0738
  lat_lin_w160_c22: x_w160_c22 + y_w160_c22 >= 0.3372
  lat_lin_w160_c23: x_w160_c23 + y_w160_c23 >= 0.6436
  lat_lin_w160_c24: x_w160_c24 + y_w160_c24 >= 0.6388
  demand_w160: x_w160_c0 + x_w160_c1 + x_w160_c2 + x_w160_c3 + x_w160_c4 + x_w160_c5 + x_w160_c6 + x_w160_c7 + x_w160_c8 + x_w160_c9 + x_w160_c10 + x_w160_c11 + x_w160_c12 + x_w160_c13 + x_w160_c14 + x_w160_c15 + x_w160_c16 + x_w160_c17 + x_w160_c18 + x_w160_c19 + x_w160_c20 + x_w160_c21 + x_w160_c22 + x_w160_c23 + x_w160_c24 = 13
  lat_lin_w161_c0: x_w161_c0 + y_w161_c0 >= 0.6349
  lat_lin_w161_c1: x_w161_c1 + y_w161_c1 >= 0.3172
  lat_lin_w161_c2: x_w161_c2 + y_w161_c2 >= 0.7561
  lat_lin_w161_c3: x_w161_c3 + y_w161_c3 >= 0.2922
  lat_lin_w161_c4: x_w161_c4 + y_w161_c4 >= 0.8410
  lat_lin_w161_c5: x_w161_c5 + y_w161_c5 >= 0.0555
  lat_lin_w161_c6: x_w161_c6 + y_w161_c6 >= 0.4856
  lat_lin_w161_c7: x_w161_c7 + y_w161_c7 >= 0.5143
  lat_lin_w161_c8: x_w161_c8 + y_w161_c8 >= 0.5440
  lat_lin_w161_c9: x_w161_c9 + y_w161_c9 >= 0.2132
  lat_lin_w161_c10: x_w161_c10 + y_w161_c10 >= 0.0660
  lat_lin_w161_c11: x_w161_c11 + y_w161_c11 >= 0.0558
  lat_lin_w161_c12: x_w161_c12 + y_w161_c12 >= 0.4137
  lat_lin_w161_c13: x_w161_c13 + y_w161_c13 >= 0.0567
  lat_lin_w161_c14: x_w161_c14 + y_w161_c14 >= 0.4102
  lat_lin_w161_c15: x_w161_c15 + y_w161_c15 >= 0.5945
  lat_lin_w161_c16: x_w161_c16 + y_w161_c16 >= 0.6631
  lat_lin_w161_c17: x_w161_c17 + y_w161_c17 >= 0.2161
  lat_lin_w161_c18: x_w161_c18 + y_w161_c18 >= 0.7000
  lat_lin_w161_c19: x_w161_c19 + y_w161_c19 >= 0.1369
  lat_lin_w161_c20: x_w161_c20 + y_w161_c20 >= 0.4117
  lat_lin_w161_c21: x_w161_c21 + y_w161_c21 >= 0.5435
  lat_lin_w161_c22: x_w161_c22 + y_w161_c22 >= 0.4496
  lat_lin_w161_c23: x_w161_c23 + y_w161_c23 >= 0.3784
  lat_lin_w161_c24: x_w161_c24 + y_w161_c24 >= 0.2498
  demand_w161: x_w161_c0 + x_w161_c1 + x_w161_c2 + x_w161_c3 + x_w161_c4 + x_w161_c5 + x_w161_c6 + x_w161_c7 + x_w161_c8 + x_w161_c9 + x_w161_c10 + x_w161_c11 + x_w161_c12 + x_w161_c13 + x_w161_c14 + x_w161_c15 + x_w161_c16 + x_w161_c17 + x_w161_c18 + x_w161_c19 + x_w161_c20 + x_w161_c21 + x_w161_c22 + x_w161_c23 + x_w161_c24 = 10
  lat_lin_w162_c0: x_w162_c0 + y_w162_c0 >= 0.0291
  lat_lin_w162_c1: x_w162_c1 + y_w162_c1 >= 0.1096
  lat_lin_w162_c2: x_w162_c2 + y_w162_c2 >= 0.0132
  lat_lin_w162_c3: x_w162_c3 + y_w162_c3 >= 0.1807
  lat_lin_w162_c4: x_w162_c4 + y_w162_c4 >= 0.2711
  lat_lin_w162_c5: x_w162_c5 + y_w162_c5 >= 0.0905
  lat_lin_w162_c6: x_w162_c6 + y_w162_c6 >= 0.1972
  lat_lin_w162_c7: x_w162_c7 + y_w162_c7 >= 0.1899
  lat_lin_w162_c8: x_w162_c8 + y_w162_c8 >= 0.0190
  lat_lin_w162_c9: x_w162_c9 + y_w162_c9 >= 0.1792
  lat_lin_w162_c10: x_w162_c10 + y_w162_c10 >= 0.0661
  lat_lin_w162_c11: x_w162_c11 + y_w162_c11 >= 0.2446
  lat_lin_w162_c12: x_w162_c12 + y_w162_c12 >= 0.2601
  lat_lin_w162_c13: x_w162_c13 + y_w162_c13 >= 0.0933
  lat_lin_w162_c14: x_w162_c14 + y_w162_c14 >= 0.2736
  lat_lin_w162_c15: x_w162_c15 + y_w162_c15 >= 0.2728
  lat_lin_w162_c16: x_w162_c16 + y_w162_c16 >= 0.2484
  lat_lin_w162_c17: x_w162_c17 + y_w162_c17 >= 0.2778
  lat_lin_w162_c18: x_w162_c18 + y_w162_c18 >= 0.1034
  lat_lin_w162_c19: x_w162_c19 + y_w162_c19 >= 0.0555
  lat_lin_w162_c20: x_w162_c20 + y_w162_c20 >= 0.2529
  lat_lin_w162_c21: x_w162_c21 + y_w162_c21 >= 0.1641
  lat_lin_w162_c22: x_w162_c22 + y_w162_c22 >= 0.2869
  lat_lin_w162_c23: x_w162_c23 + y_w162_c23 >= 0.0112
  lat_lin_w162_c24: x_w162_c24 + y_w162_c24 >= 0.1094
  demand_w162: x_w162_c0 + x_w162_c1 + x_w162_c2 + x_w162_c3 + x_w162_c4 + x_w162_c5 + x_w162_c6 + x_w162_c7 + x_w162_c8 + x_w162_c9 + x_w162_c10 + x_w162_c11 + x_w162_c12 + x_w162_c13 + x_w162_c14 + x_w162_c15 + x_w162_c16 + x_w162_c17 + x_w162_c18 + x_w162_c19 + x_w162_c20 + x_w162_c21 + x_w162_c22 + x_w162_c23 + x_w162_c24 = 4
  lat_lin_w163_c0: x_w163_c0 + y_w163_c0 >= 0.4308
  lat_lin_w163_c1: x_w163_c1 + y_w163_c1 >= 0.7536
  lat_lin_w163_c2: x_w163_c2 + y_w163_c2 >= 0.3712
  lat_lin_w163_c3: x_w163_c3 + y_w163_c3 >= 0.3507
  lat_lin_w163_c4: x_w163_c4 + y_w163_c4 >= 0.4069
  lat_lin_w163_c5: x_w163_c5 + y_w163_c5 >= 0.2465
  lat_lin_w163_c6: x_w163_c6 + y_w163_c6 >= 0.1381
  lat_lin_w163_c7: x_w163_c7 + y_w163_c7 >= 0.2467
  lat_lin_w163_c8: x_w163_c8 + y_w163_c8 >= 0.1422
  lat_lin_w163_c9: x_w163_c9 + y_w163_c9 >= 0.7653
  lat_lin_w163_c10: x_w163_c10 + y_w163_c10 >= 0.4360
  lat_lin_w163_c11: x_w163_c11 + y_w163_c11 >= 0.1574
  lat_lin_w163_c12: x_w163_c12 + y_w163_c12 >= 0.2271
  lat_lin_w163_c13: x_w163_c13 + y_w163_c13 >= 0.7258
  lat_lin_w163_c14: x_w163_c14 + y_w163_c14 >= 0.3060
  lat_lin_w163_c15: x_w163_c15 + y_w163_c15 >= 0.5421
  lat_lin_w163_c16: x_w163_c16 + y_w163_c16 >= 0.6815
  lat_lin_w163_c17: x_w163_c17 + y_w163_c17 >= 0.7582
  lat_lin_w163_c18: x_w163_c18 + y_w163_c18 >= 0.0941
  lat_lin_w163_c19: x_w163_c19 + y_w163_c19 >= 0.6139
  lat_lin_w163_c20: x_w163_c20 + y_w163_c20 >= 0.5270
  lat_lin_w163_c21: x_w163_c21 + y_w163_c21 >= 0.2468
  lat_lin_w163_c22: x_w163_c22 + y_w163_c22 >= 0.1974
  lat_lin_w163_c23: x_w163_c23 + y_w163_c23 >= 0.3144
  lat_lin_w163_c24: x_w163_c24 + y_w163_c24 >= 0.3200
  demand_w163: x_w163_c0 + x_w163_c1 + x_w163_c2 + x_w163_c3 + x_w163_c4 + x_w163_c5 + x_w163_c6 + x_w163_c7 + x_w163_c8 + x_w163_c9 + x_w163_c10 + x_w163_c11 + x_w163_c12 + x_w163_c13 + x_w163_c14 + x_w163_c15 + x_w163_c16 + x_w163_c17 + x_w163_c18 + x_w163_c19 + x_w163_c20 + x_w163_c21 + x_w163_c22 + x_w163_c23 + x_w163_c24 = 10
  lat_lin_w164_c0: x_w164_c0 + y_w164_c0 >= 0.0473
  lat_lin_w164_c1: x_w164_c1 + y_w164_c1 >= 0.1736
  lat_lin_w164_c2: x_w164_c2 + y_w164_c2 >= 0.0965
  lat_lin_w164_c3: x_w164_c3 + y_w164_c3 >= 0.7924
  lat_lin_w164_c4: x_w164_c4 + y_w164_c4 >= 0.7561
  lat_lin_w164_c5: x_w164_c5 + y_w164_c5 >= 0.6439
  lat_lin_w164_c6: x_w164_c6 + y_w164_c6 >= 1.3078
  lat_lin_w164_c7: x_w164_c7 + y_w164_c7 >= 0.9490
  lat_lin_w164_c8: x_w164_c8 + y_w164_c8 >= 0.7146
  lat_lin_w164_c9: x_w164_c9 + y_w164_c9 >= 0.2269
  lat_lin_w164_c10: x_w164_c10 + y_w164_c10 >= 0.8979
  lat_lin_w164_c11: x_w164_c11 + y_w164_c11 >= 0.7203
  lat_lin_w164_c12: x_w164_c12 + y_w164_c12 >= 0.4548
  lat_lin_w164_c13: x_w164_c13 + y_w164_c13 >= 0.0827
  lat_lin_w164_c14: x_w164_c14 + y_w164_c14 >= 0.4132
  lat_lin_w164_c15: x_w164_c15 + y_w164_c15 >= 0.1571
  lat_lin_w164_c16: x_w164_c16 + y_w164_c16 >= 0.8429
  lat_lin_w164_c17: x_w164_c17 + y_w164_c17 >= 0.8304
  lat_lin_w164_c18: x_w164_c18 + y_w164_c18 >= 0.2264
  lat_lin_w164_c19: x_w164_c19 + y_w164_c19 >= 1.1693
  lat_lin_w164_c20: x_w164_c20 + y_w164_c20 >= 0.4166
  lat_lin_w164_c21: x_w164_c21 + y_w164_c21 >= 1.3571
  lat_lin_w164_c22: x_w164_c22 + y_w164_c22 >= 0.4108
  lat_lin_w164_c23: x_w164_c23 + y_w164_c23 >= 0.2931
  lat_lin_w164_c24: x_w164_c24 + y_w164_c24 >= 1.0193
  demand_w164: x_w164_c0 + x_w164_c1 + x_w164_c2 + x_w164_c3 + x_w164_c4 + x_w164_c5 + x_w164_c6 + x_w164_c7 + x_w164_c8 + x_w164_c9 + x_w164_c10 + x_w164_c11 + x_w164_c12 + x_w164_c13 + x_w164_c14 + x_w164_c15 + x_w164_c16 + x_w164_c17 + x_w164_c18 + x_w164_c19 + x_w164_c20 + x_w164_c21 + x_w164_c22 + x_w164_c23 + x_w164_c24 = 15
  lat_lin_w165_c0: x_w165_c0 + y_w165_c0 >= 0.1073
  lat_lin_w165_c1: x_w165_c1 + y_w165_c1 >= 0.7391
  lat_lin_w165_c2: x_w165_c2 + y_w165_c2 >= 0.1647
  lat_lin_w165_c3: x_w165_c3 + y_w165_c3 >= 0.5387
  lat_lin_w165_c4: x_w165_c4 + y_w165_c4 >= 0.8098
  lat_lin_w165_c5: x_w165_c5 + y_w165_c5 >= 0.7877
  lat_lin_w165_c6: x_w165_c6 + y_w165_c6 >= 0.1641
  lat_lin_w165_c7: x_w165_c7 + y_w165_c7 >= 0.6035
  lat_lin_w165_c8: x_w165_c8 + y_w165_c8 >= 0.0985
  lat_lin_w165_c9: x_w165_c9 + y_w165_c9 >= 0.7995
  lat_lin_w165_c10: x_w165_c10 + y_w165_c10 >= 0.6333
  lat_lin_w165_c11: x_w165_c11 + y_w165_c11 >= 0.4858
  lat_lin_w165_c12: x_w165_c12 + y_w165_c12 >= 0.5627
  lat_lin_w165_c13: x_w165_c13 + y_w165_c13 >= 0.6258
  lat_lin_w165_c14: x_w165_c14 + y_w165_c14 >= 0.3798
  lat_lin_w165_c15: x_w165_c15 + y_w165_c15 >= 0.0436
  lat_lin_w165_c16: x_w165_c16 + y_w165_c16 >= 0.7291
  lat_lin_w165_c17: x_w165_c17 + y_w165_c17 >= 0.3424
  lat_lin_w165_c18: x_w165_c18 + y_w165_c18 >= 0.6527
  lat_lin_w165_c19: x_w165_c19 + y_w165_c19 >= 0.4639
  lat_lin_w165_c20: x_w165_c20 + y_w165_c20 >= 0.1336
  lat_lin_w165_c21: x_w165_c21 + y_w165_c21 >= 0.4674
  lat_lin_w165_c22: x_w165_c22 + y_w165_c22 >= 0.4135
  lat_lin_w165_c23: x_w165_c23 + y_w165_c23 >= 0.4701
  lat_lin_w165_c24: x_w165_c24 + y_w165_c24 >= 0.7833
  demand_w165: x_w165_c0 + x_w165_c1 + x_w165_c2 + x_w165_c3 + x_w165_c4 + x_w165_c5 + x_w165_c6 + x_w165_c7 + x_w165_c8 + x_w165_c9 + x_w165_c10 + x_w165_c11 + x_w165_c12 + x_w165_c13 + x_w165_c14 + x_w165_c15 + x_w165_c16 + x_w165_c17 + x_w165_c18 + x_w165_c19 + x_w165_c20 + x_w165_c21 + x_w165_c22 + x_w165_c23 + x_w165_c24 = 12
  lat_lin_w166_c0: x_w166_c0 + y_w166_c0 >= 0.0734
  lat_lin_w166_c1: x_w166_c1 + y_w166_c1 >= 0.4674
  lat_lin_w166_c2: x_w166_c2 + y_w166_c2 >= 0.6935
  lat_lin_w166_c3: x_w166_c3 + y_w166_c3 >= 0.2951
  lat_lin_w166_c4: x_w166_c4 + y_w166_c4 >= 0.3224
  lat_lin_w166_c5: x_w166_c5 + y_w166_c5 >= 0.5826
  lat_lin_w166_c6: x_w166_c6 + y_w166_c6 >= 0.8043
  lat_lin_w166_c7: x_w166_c7 + y_w166_c7 >= 0.8184
  lat_lin_w166_c8: x_w166_c8 + y_w166_c8 >= 0.6753
  lat_lin_w166_c9: x_w166_c9 + y_w166_c9 >= 0.5927
  lat_lin_w166_c10: x_w166_c10 + y_w166_c10 >= 0.6510
  lat_lin_w166_c11: x_w166_c11 + y_w166_c11 >= 0.0284
  lat_lin_w166_c12: x_w166_c12 + y_w166_c12 >= 0.2982
  lat_lin_w166_c13: x_w166_c13 + y_w166_c13 >= 0.5315
  lat_lin_w166_c14: x_w166_c14 + y_w166_c14 >= 0.1586
  lat_lin_w166_c15: x_w166_c15 + y_w166_c15 >= 0.7668
  lat_lin_w166_c16: x_w166_c16 + y_w166_c16 >= 0.5385
  lat_lin_w166_c17: x_w166_c17 + y_w166_c17 >= 0.0920
  lat_lin_w166_c18: x_w166_c18 + y_w166_c18 >= 0.1766
  lat_lin_w166_c19: x_w166_c19 + y_w166_c19 >= 0.2878
  lat_lin_w166_c20: x_w166_c20 + y_w166_c20 >= 0.4641
  lat_lin_w166_c21: x_w166_c21 + y_w166_c21 >= 0.7000
  lat_lin_w166_c22: x_w166_c22 + y_w166_c22 >= 0.7408
  lat_lin_w166_c23: x_w166_c23 + y_w166_c23 >= 0.5381
  lat_lin_w166_c24: x_w166_c24 + y_w166_c24 >= 0.7025
  demand_w166: x_w166_c0 + x_w166_c1 + x_w166_c2 + x_w166_c3 + x_w166_c4 + x_w166_c5 + x_w166_c6 + x_w166_c7 + x_w166_c8 + x_w166_c9 + x_w166_c10 + x_w166_c11 + x_w166_c12 + x_w166_c13 + x_w166_c14 + x_w166_c15 + x_w166_c16 + x_w166_c17 + x_w166_c18 + x_w166_c19 + x_w166_c20 + x_w166_c21 + x_w166_c22 + x_w166_c23 + x_w166_c24 = 12
  lat_lin_w167_c0: x_w167_c0 + y_w167_c0 >= 0.1993
  lat_lin_w167_c1: x_w167_c1 + y_w167_c1 >= 0.1905
  lat_lin_w167_c2: x_w167_c2 + y_w167_c2 >= 0.4096
  lat_lin_w167_c3: x_w167_c3 + y_w167_c3 >= 0.1211
  lat_lin_w167_c4: x_w167_c4 + y_w167_c4 >= 0.2960
  lat_lin_w167_c5: x_w167_c5 + y_w167_c5 >= 0.0734
  lat_lin_w167_c6: x_w167_c6 + y_w167_c6 >= 0.2293
  lat_lin_w167_c7: x_w167_c7 + y_w167_c7 >= 0.2518
  lat_lin_w167_c8: x_w167_c8 + y_w167_c8 >= 0.3643
  lat_lin_w167_c9: x_w167_c9 + y_w167_c9 >= 0.1150
  lat_lin_w167_c10: x_w167_c10 + y_w167_c10 >= 0.3200
  lat_lin_w167_c11: x_w167_c11 + y_w167_c11 >= 0.0999
  lat_lin_w167_c12: x_w167_c12 + y_w167_c12 >= 0.2720
  lat_lin_w167_c13: x_w167_c13 + y_w167_c13 >= 0.2436
  lat_lin_w167_c14: x_w167_c14 + y_w167_c14 >= 0.3899
  lat_lin_w167_c15: x_w167_c15 + y_w167_c15 >= 0.2141
  lat_lin_w167_c16: x_w167_c16 + y_w167_c16 >= 0.2255
  lat_lin_w167_c17: x_w167_c17 + y_w167_c17 >= 0.2835
  lat_lin_w167_c18: x_w167_c18 + y_w167_c18 >= 0.1368
  lat_lin_w167_c19: x_w167_c19 + y_w167_c19 >= 0.0199
  lat_lin_w167_c20: x_w167_c20 + y_w167_c20 >= 0.2604
  lat_lin_w167_c21: x_w167_c21 + y_w167_c21 >= 0.0539
  lat_lin_w167_c22: x_w167_c22 + y_w167_c22 >= 0.1575
  lat_lin_w167_c23: x_w167_c23 + y_w167_c23 >= 0.0504
  lat_lin_w167_c24: x_w167_c24 + y_w167_c24 >= 0.0226
  demand_w167: x_w167_c0 + x_w167_c1 + x_w167_c2 + x_w167_c3 + x_w167_c4 + x_w167_c5 + x_w167_c6 + x_w167_c7 + x_w167_c8 + x_w167_c9 + x_w167_c10 + x_w167_c11 + x_w167_c12 + x_w167_c13 + x_w167_c14 + x_w167_c15 + x_w167_c16 + x_w167_c17 + x_w167_c18 + x_w167_c19 + x_w167_c20 + x_w167_c21 + x_w167_c22 + x_w167_c23 + x_w167_c24 = 5
  lat_lin_w168_c0: x_w168_c0 + y_w168_c0 >= 0.0981
  lat_lin_w168_c1: x_w168_c1 + y_w168_c1 >= 0.4906
  lat_lin_w168_c2: x_w168_c2 + y_w168_c2 >= 0.4505
  lat_lin_w168_c3: x_w168_c3 + y_w168_c3 >= 0.2928
  lat_lin_w168_c4: x_w168_c4 + y_w168_c4 >= 0.8573
  lat_lin_w168_c5: x_w168_c5 + y_w168_c5 >= 0.8455
  lat_lin_w168_c6: x_w168_c6 + y_w168_c6 >= 0.5784
  lat_lin_w168_c7: x_w168_c7 + y_w168_c7 >= 0.6235
  lat_lin_w168_c8: x_w168_c8 + y_w168_c8 >= 0.4458
  lat_lin_w168_c9: x_w168_c9 + y_w168_c9 >= 0.9815
  lat_lin_w168_c10: x_w168_c10 + y_w168_c10 >= 1.0509
  lat_lin_w168_c11: x_w168_c11 + y_w168_c11 >= 0.9749
  lat_lin_w168_c12: x_w168_c12 + y_w168_c12 >= 0.7273
  lat_lin_w168_c13: x_w168_c13 + y_w168_c13 >= 0.3824
  lat_lin_w168_c14: x_w168_c14 + y_w168_c14 >= 0.5749
  lat_lin_w168_c15: x_w168_c15 + y_w168_c15 >= 0.9827
  lat_lin_w168_c16: x_w168_c16 + y_w168_c16 >= 0.4410
  lat_lin_w168_c17: x_w168_c17 + y_w168_c17 >= 0.8106
  lat_lin_w168_c18: x_w168_c18 + y_w168_c18 >= 0.6846
  lat_lin_w168_c19: x_w168_c19 + y_w168_c19 >= 0.4117
  lat_lin_w168_c20: x_w168_c20 + y_w168_c20 >= 1.0534
  lat_lin_w168_c21: x_w168_c21 + y_w168_c21 >= 0.0964
  lat_lin_w168_c22: x_w168_c22 + y_w168_c22 >= 0.4627
  lat_lin_w168_c23: x_w168_c23 + y_w168_c23 >= 0.6628
  lat_lin_w168_c24: x_w168_c24 + y_w168_c24 >= 0.0193
  demand_w168: x_w168_c0 + x_w168_c1 + x_w168_c2 + x_w168_c3 + x_w168_c4 + x_w168_c5 + x_w168_c6 + x_w168_c7 + x_w168_c8 + x_w168_c9 + x_w168_c10 + x_w168_c11 + x_w168_c12 + x_w168_c13 + x_w168_c14 + x_w168_c15 + x_w168_c16 + x_w168_c17 + x_w168_c18 + x_w168_c19 + x_w168_c20 + x_w168_c21 + x_w168_c22 + x_w168_c23 + x_w168_c24 = 15
  lat_lin_w169_c0: x_w169_c0 + y_w169_c0 >= 0.4378
  lat_lin_w169_c1: x_w169_c1 + y_w169_c1 >= 0.3164
  lat_lin_w169_c2: x_w169_c2 + y_w169_c2 >= 0.1324
  lat_lin_w169_c3: x_w169_c3 + y_w169_c3 >= 0.3750
  lat_lin_w169_c4: x_w169_c4 + y_w169_c4 >= 0.5320
  lat_lin_w169_c5: x_w169_c5 + y_w169_c5 >= 0.6506
  lat_lin_w169_c6: x_w169_c6 + y_w169_c6 >= 0.3910
  lat_lin_w169_c7: x_w169_c7 + y_w169_c7 >= 0.3711
  lat_lin_w169_c8: x_w169_c8 + y_w169_c8 >= 0.3748
  lat_lin_w169_c9: x_w169_c9 + y_w169_c9 >= 0.1875
  lat_lin_w169_c10: x_w169_c10 + y_w169_c10 >= 0.2484
  lat_lin_w169_c11: x_w169_c11 + y_w169_c11 >= 0.2201
  lat_lin_w169_c12: x_w169_c12 + y_w169_c12 >= 0.4830
  lat_lin_w169_c13: x_w169_c13 + y_w169_c13 >= 0.0244
  lat_lin_w169_c14: x_w169_c14 + y_w169_c14 >= 0.3986
  lat_lin_w169_c15: x_w169_c15 + y_w169_c15 >= 0.0710
  lat_lin_w169_c16: x_w169_c16 + y_w169_c16 >= 0.4215
  lat_lin_w169_c17: x_w169_c17 + y_w169_c17 >= 0.2268
  lat_lin_w169_c18: x_w169_c18 + y_w169_c18 >= 0.2090
  lat_lin_w169_c19: x_w169_c19 + y_w169_c19 >= 0.3483
  lat_lin_w169_c20: x_w169_c20 + y_w169_c20 >= 0.4377
  lat_lin_w169_c21: x_w169_c21 + y_w169_c21 >= 0.1614
  lat_lin_w169_c22: x_w169_c22 + y_w169_c22 >= 0.1999
  lat_lin_w169_c23: x_w169_c23 + y_w169_c23 >= 0.5718
  lat_lin_w169_c24: x_w169_c24 + y_w169_c24 >= 0.2095
  demand_w169: x_w169_c0 + x_w169_c1 + x_w169_c2 + x_w169_c3 + x_w169_c4 + x_w169_c5 + x_w169_c6 + x_w169_c7 + x_w169_c8 + x_w169_c9 + x_w169_c10 + x_w169_c11 + x_w169_c12 + x_w169_c13 + x_w169_c14 + x_w169_c15 + x_w169_c16 + x_w169_c17 + x_w169_c18 + x_w169_c19 + x_w169_c20 + x_w169_c21 + x_w169_c22 + x_w169_c23 + x_w169_c24 = 8
  lat_lin_w170_c0: x_w170_c0 + y_w170_c0 >= 0.3025
  lat_lin_w170_c1: x_w170_c1 + y_w170_c1 >= 0.5456
  lat_lin_w170_c2: x_w170_c2 + y_w170_c2 >= 0.2850
  lat_lin_w170_c3: x_w170_c3 + y_w170_c3 >= 0.1496
  lat_lin_w170_c4: x_w170_c4 + y_w170_c4 >= 0.3717
  lat_lin_w170_c5: x_w170_c5 + y_w170_c5 >= 0.3690
  lat_lin_w170_c6: x_w170_c6 + y_w170_c6 >= 0.3378
  lat_lin_w170_c7: x_w170_c7 + y_w170_c7 >= 0.0049
  lat_lin_w170_c8: x_w170_c8 + y_w170_c8 >= 0.1364
  lat_lin_w170_c9: x_w170_c9 + y_w170_c9 >= 0.1052
  lat_lin_w170_c10: x_w170_c10 + y_w170_c10 >= 0.4255
  lat_lin_w170_c11: x_w170_c11 + y_w170_c11 >= 0.6023
  lat_lin_w170_c12: x_w170_c12 + y_w170_c12 >= 0.4265
  lat_lin_w170_c13: x_w170_c13 + y_w170_c13 >= 0.1910
  lat_lin_w170_c14: x_w170_c14 + y_w170_c14 >= 0.0455
  lat_lin_w170_c15: x_w170_c15 + y_w170_c15 >= 0.1413
  lat_lin_w170_c16: x_w170_c16 + y_w170_c16 >= 0.5159
  lat_lin_w170_c17: x_w170_c17 + y_w170_c17 >= 0.5720
  lat_lin_w170_c18: x_w170_c18 + y_w170_c18 >= 0.3974
  lat_lin_w170_c19: x_w170_c19 + y_w170_c19 >= 0.1276
  lat_lin_w170_c20: x_w170_c20 + y_w170_c20 >= 0.5879
  lat_lin_w170_c21: x_w170_c21 + y_w170_c21 >= 0.5845
  lat_lin_w170_c22: x_w170_c22 + y_w170_c22 >= 0.1004
  lat_lin_w170_c23: x_w170_c23 + y_w170_c23 >= 0.0756
  lat_lin_w170_c24: x_w170_c24 + y_w170_c24 >= 0.5987
  demand_w170: x_w170_c0 + x_w170_c1 + x_w170_c2 + x_w170_c3 + x_w170_c4 + x_w170_c5 + x_w170_c6 + x_w170_c7 + x_w170_c8 + x_w170_c9 + x_w170_c10 + x_w170_c11 + x_w170_c12 + x_w170_c13 + x_w170_c14 + x_w170_c15 + x_w170_c16 + x_w170_c17 + x_w170_c18 + x_w170_c19 + x_w170_c20 + x_w170_c21 + x_w170_c22 + x_w170_c23 + x_w170_c24 = 8
  lat_lin_w171_c0: x_w171_c0 + y_w171_c0 >= 0.7962
  lat_lin_w171_c1: x_w171_c1 + y_w171_c1 >= 0.6368
  lat_lin_w171_c2: x_w171_c2 + y_w171_c2 >= 0.7336
  lat_lin_w171_c3: x_w171_c3 + y_w171_c3 >= 0.4458
  lat_lin_w171_c4: x_w171_c4 + y_w171_c4 >= 0.1248
  lat_lin_w171_c5: x_w171_c5 + y_w171_c5 >= 0.6637
  lat_lin_w171_c6: x_w171_c6 + y_w171_c6 >= 0.1606
  lat_lin_w171_c7: x_w171_c7 + y_w171_c7 >= 0.2665
  lat_lin_w171_c8: x_w171_c8 + y_w171_c8 >= 0.3888
  lat_lin_w171_c9: x_w171_c9 + y_w171_c9 >= 0.8570
  lat_lin_w171_c10: x_w171_c10 + y_w171_c10 >= 0.6385
  lat_lin_w171_c11: x_w171_c11 + y_w171_c11 >= 0.8490
  lat_lin_w171_c12: x_w171_c12 + y_w171_c12 >= 0.8634
  lat_lin_w171_c13: x_w171_c13 + y_w171_c13 >= 0.5551
  lat_lin_w171_c14: x_w171_c14 + y_w171_c14 >= 0.8761
  lat_lin_w171_c15: x_w171_c15 + y_w171_c15 >= 0.2659
  lat_lin_w171_c16: x_w171_c16 + y_w171_c16 >= 0.0332
  lat_lin_w171_c17: x_w171_c17 + y_w171_c17 >= 0.0556
  lat_lin_w171_c18: x_w171_c18 + y_w171_c18 >= 0.4295
  lat_lin_w171_c19: x_w171_c19 + y_w171_c19 >= 0.4228
  lat_lin_w171_c20: x_w171_c20 + y_w171_c20 >= 0.2441
  lat_lin_w171_c21: x_w171_c21 + y_w171_c21 >= 0.2814
  lat_lin_w171_c22: x_w171_c22 + y_w171_c22 >= 0.7445
  lat_lin_w171_c23: x_w171_c23 + y_w171_c23 >= 0.4033
  lat_lin_w171_c24: x_w171_c24 + y_w171_c24 >= 0.2637
  demand_w171: x_w171_c0 + x_w171_c1 + x_w171_c2 + x_w171_c3 + x_w171_c4 + x_w171_c5 + x_w171_c6 + x_w171_c7 + x_w171_c8 + x_w171_c9 + x_w171_c10 + x_w171_c11 + x_w171_c12 + x_w171_c13 + x_w171_c14 + x_w171_c15 + x_w171_c16 + x_w171_c17 + x_w171_c18 + x_w171_c19 + x_w171_c20 + x_w171_c21 + x_w171_c22 + x_w171_c23 + x_w171_c24 = 12
  lat_lin_w172_c0: x_w172_c0 + y_w172_c0 >= 0.8849
  lat_lin_w172_c1: x_w172_c1 + y_w172_c1 >= 0.8362
  lat_lin_w172_c2: x_w172_c2 + y_w172_c2 >= 1.0123
  lat_lin_w172_c3: x_w172_c3 + y_w172_c3 >= 0.8404
  lat_lin_w172_c4: x_w172_c4 + y_w172_c4 >= 0.0878
  lat_lin_w172_c5: x_w172_c5 + y_w172_c5 >= 0.0946
  lat_lin_w172_c6: x_w172_c6 + y_w172_c6 >= 0.9262
  lat_lin_w172_c7: x_w172_c7 + y_w172_c7 >= 0.3878
  lat_lin_w172_c8: x_w172_c8 + y_w172_c8 >= 0.6653
  lat_lin_w172_c9: x_w172_c9 + y_w172_c9 >= 0.5990
  lat_lin_w172_c10: x_w172_c10 + y_w172_c10 >= 0.7699
  lat_lin_w172_c11: x_w172_c11 + y_w172_c11 >= 0.8087
  lat_lin_w172_c12: x_w172_c12 + y_w172_c12 >= 0.4404
  lat_lin_w172_c13: x_w172_c13 + y_w172_c13 >= 0.7820
  lat_lin_w172_c14: x_w172_c14 + y_w172_c14 >= 0.7741
  lat_lin_w172_c15: x_w172_c15 + y_w172_c15 >= 0.0954
  lat_lin_w172_c16: x_w172_c16 + y_w172_c16 >= 0.3720
  lat_lin_w172_c17: x_w172_c17 + y_w172_c17 >= 0.0700
  lat_lin_w172_c18: x_w172_c18 + y_w172_c18 >= 1.0287
  lat_lin_w172_c19: x_w172_c19 + y_w172_c19 >= 1.0630
  lat_lin_w172_c20: x_w172_c20 + y_w172_c20 >= 0.1794
  lat_lin_w172_c21: x_w172_c21 + y_w172_c21 >= 0.4739
  lat_lin_w172_c22: x_w172_c22 + y_w172_c22 >= 0.5336
  lat_lin_w172_c23: x_w172_c23 + y_w172_c23 >= 0.6824
  lat_lin_w172_c24: x_w172_c24 + y_w172_c24 >= 0.5921
  demand_w172: x_w172_c0 + x_w172_c1 + x_w172_c2 + x_w172_c3 + x_w172_c4 + x_w172_c5 + x_w172_c6 + x_w172_c7 + x_w172_c8 + x_w172_c9 + x_w172_c10 + x_w172_c11 + x_w172_c12 + x_w172_c13 + x_w172_c14 + x_w172_c15 + x_w172_c16 + x_w172_c17 + x_w172_c18 + x_w172_c19 + x_w172_c20 + x_w172_c21 + x_w172_c22 + x_w172_c23 + x_w172_c24 = 15
  lat_lin_w173_c0: x_w173_c0 + y_w173_c0 >= 0.3161
  lat_lin_w173_c1: x_w173_c1 + y_w173_c1 >= 0.3138
  lat_lin_w173_c2: x_w173_c2 + y_w173_c2 >= 0.0844
  lat_lin_w173_c3: x_w173_c3 + y_w173_c3 >= 0.1693
  lat_lin_w173_c4: x_w173_c4 + y_w173_c4 >= 0.2664
  lat_lin_w173_c5: x_w173_c5 + y_w173_c5 >= 0.1923
  lat_lin_w173_c6: x_w173_c6 + y_w173_c6 >= 0.2508
  lat_lin_w173_c7: x_w173_c7 + y_w173_c7 >= 0.1461
  lat_lin_w173_c8: x_w173_c8 + y_w173_c8 >= 0.0247
  lat_lin_w173_c9: x_w173_c9 + y_w173_c9 >= 0.2203
  lat_lin_w173_c10: x_w173_c10 + y_w173_c10 >= 0.3607
  lat_lin_w173_c11: x_w173_c11 + y_w173_c11 >= 0.1901
  lat_lin_w173_c12: x_w173_c12 + y_w173_c12 >= 0.1265
  lat_lin_w173_c13: x_w173_c13 + y_w173_c13 >= 0.1743
  lat_lin_w173_c14: x_w173_c14 + y_w173_c14 >= 0.0246
  lat_lin_w173_c15: x_w173_c15 + y_w173_c15 >= 0.3249
  lat_lin_w173_c16: x_w173_c16 + y_w173_c16 >= 0.2224
  lat_lin_w173_c17: x_w173_c17 + y_w173_c17 >= 0.2038
  lat_lin_w173_c18: x_w173_c18 + y_w173_c18 >= 0.1074
  lat_lin_w173_c19: x_w173_c19 + y_w173_c19 >= 0.3372
  lat_lin_w173_c20: x_w173_c20 + y_w173_c20 >= 0.1751
  lat_lin_w173_c21: x_w173_c21 + y_w173_c21 >= 0.1903
  lat_lin_w173_c22: x_w173_c22 + y_w173_c22 >= 0.1633
  lat_lin_w173_c23: x_w173_c23 + y_w173_c23 >= 0.0454
  lat_lin_w173_c24: x_w173_c24 + y_w173_c24 >= 0.3700
  demand_w173: x_w173_c0 + x_w173_c1 + x_w173_c2 + x_w173_c3 + x_w173_c4 + x_w173_c5 + x_w173_c6 + x_w173_c7 + x_w173_c8 + x_w173_c9 + x_w173_c10 + x_w173_c11 + x_w173_c12 + x_w173_c13 + x_w173_c14 + x_w173_c15 + x_w173_c16 + x_w173_c17 + x_w173_c18 + x_w173_c19 + x_w173_c20 + x_w173_c21 + x_w173_c22 + x_w173_c23 + x_w173_c24 = 5
  lat_lin_w174_c0: x_w174_c0 + y_w174_c0 >= 0.5009
  lat_lin_w174_c1: x_w174_c1 + y_w174_c1 >= 0.1237
  lat_lin_w174_c2: x_w174_c2 + y_w174_c2 >= 0.4133
  lat_lin_w174_c3: x_w174_c3 + y_w174_c3 >= 0.4369
  lat_lin_w174_c4: x_w174_c4 + y_w174_c4 >= 0.5522
  lat_lin_w174_c5: x_w174_c5 + y_w174_c5 >= 0.2457
  lat_lin_w174_c6: x_w174_c6 + y_w174_c6 >= 0.2587
  lat_lin_w174_c7: x_w174_c7 + y_w174_c7 >= 0.0987
  lat_lin_w174_c8: x_w174_c8 + y_w174_c8 >= 0.3715
  lat_lin_w174_c9: x_w174_c9 + y_w174_c9 >= 0.0726
  lat_lin_w174_c10: x_w174_c10 + y_w174_c10 >= 0.5144
  lat_lin_w174_c11: x_w174_c11 + y_w174_c11 >= 0.0744
  lat_lin_w174_c12: x_w174_c12 + y_w174_c12 >= 0.3831
  lat_lin_w174_c13: x_w174_c13 + y_w174_c13 >= 0.1714
  lat_lin_w174_c14: x_w174_c14 + y_w174_c14 >= 0.0362
  lat_lin_w174_c15: x_w174_c15 + y_w174_c15 >= 0.3812
  lat_lin_w174_c16: x_w174_c16 + y_w174_c16 >= 0.2001
  lat_lin_w174_c17: x_w174_c17 + y_w174_c17 >= 0.0985
  lat_lin_w174_c18: x_w174_c18 + y_w174_c18 >= 0.2277
  lat_lin_w174_c19: x_w174_c19 + y_w174_c19 >= 0.0295
  lat_lin_w174_c20: x_w174_c20 + y_w174_c20 >= 0.1201
  lat_lin_w174_c21: x_w174_c21 + y_w174_c21 >= 0.3566
  lat_lin_w174_c22: x_w174_c22 + y_w174_c22 >= 0.4882
  lat_lin_w174_c23: x_w174_c23 + y_w174_c23 >= 0.4459
  lat_lin_w174_c24: x_w174_c24 + y_w174_c24 >= 0.3985
  demand_w174: x_w174_c0 + x_w174_c1 + x_w174_c2 + x_w174_c3 + x_w174_c4 + x_w174_c5 + x_w174_c6 + x_w174_c7 + x_w174_c8 + x_w174_c9 + x_w174_c10 + x_w174_c11 + x_w174_c12 + x_w174_c13 + x_w174_c14 + x_w174_c15 + x_w174_c16 + x_w174_c17 + x_w174_c18 + x_w174_c19 + x_w174_c20 + x_w174_c21 + x_w174_c22 + x_w174_c23 + x_w174_c24 = 7
  lat_lin_w175_c0: x_w175_c0 + y_w175_c0 >= 0.4391
  lat_lin_w175_c1: x_w175_c1 + y_w175_c1 >= 0.1133
  lat_lin_w175_c2: x_w175_c2 + y_w175_c2 >= 0.2121
  lat_lin_w175_c3: x_w175_c3 + y_w175_c3 >= 0.4052
  lat_lin_w175_c4: x_w175_c4 + y_w175_c4 >= 0.1800
  lat_lin_w175_c5: x_w175_c5 + y_w175_c5 >= 0.0048
  lat_lin_w175_c6: x_w175_c6 + y_w175_c6 >= 0.4756
  lat_lin_w175_c7: x_w175_c7 + y_w175_c7 >= 0.3922
  lat_lin_w175_c8: x_w175_c8 + y_w175_c8 >= 0.1984
  lat_lin_w175_c9: x_w175_c9 + y_w175_c9 >= 0.2226
  lat_lin_w175_c10: x_w175_c10 + y_w175_c10 >= 0.0333
  lat_lin_w175_c11: x_w175_c11 + y_w175_c11 >= 0.2845
  lat_lin_w175_c12: x_w175_c12 + y_w175_c12 >= 0.4805
  lat_lin_w175_c13: x_w175_c13 + y_w175_c13 >= 0.6140
  lat_lin_w175_c14: x_w175_c14 + y_w175_c14 >= 0.3632
  lat_lin_w175_c15: x_w175_c15 + y_w175_c15 >= 0.4083
  lat_lin_w175_c16: x_w175_c16 + y_w175_c16 >= 0.5615
  lat_lin_w175_c17: x_w175_c17 + y_w175_c17 >= 0.4158
  lat_lin_w175_c18: x_w175_c18 + y_w175_c18 >= 0.5510
  lat_lin_w175_c19: x_w175_c19 + y_w175_c19 >= 0.0527
  lat_lin_w175_c20: x_w175_c20 + y_w175_c20 >= 0.5956
  lat_lin_w175_c21: x_w175_c21 + y_w175_c21 >= 0.5229
  lat_lin_w175_c22: x_w175_c22 + y_w175_c22 >= 0.0080
  lat_lin_w175_c23: x_w175_c23 + y_w175_c23 >= 0.1772
  lat_lin_w175_c24: x_w175_c24 + y_w175_c24 >= 0.2879
  demand_w175: x_w175_c0 + x_w175_c1 + x_w175_c2 + x_w175_c3 + x_w175_c4 + x_w175_c5 + x_w175_c6 + x_w175_c7 + x_w175_c8 + x_w175_c9 + x_w175_c10 + x_w175_c11 + x_w175_c12 + x_w175_c13 + x_w175_c14 + x_w175_c15 + x_w175_c16 + x_w175_c17 + x_w175_c18 + x_w175_c19 + x_w175_c20 + x_w175_c21 + x_w175_c22 + x_w175_c23 + x_w175_c24 = 8
  lat_lin_w176_c0: x_w176_c0 + y_w176_c0 >= 0.7002
  lat_lin_w176_c1: x_w176_c1 + y_w176_c1 >= 0.2128
  lat_lin_w176_c2: x_w176_c2 + y_w176_c2 >= 0.2084
  lat_lin_w176_c3: x_w176_c3 + y_w176_c3 >= 1.1848
  lat_lin_w176_c4: x_w176_c4 + y_w176_c4 >= 0.0732
  lat_lin_w176_c5: x_w176_c5 + y_w176_c5 >= 0.9383
  lat_lin_w176_c6: x_w176_c6 + y_w176_c6 >= 0.6039
  lat_lin_w176_c7: x_w176_c7 + y_w176_c7 >= 0.0443
  lat_lin_w176_c8: x_w176_c8 + y_w176_c8 >= 0.5938
  lat_lin_w176_c9: x_w176_c9 + y_w176_c9 >= 1.1830
  lat_lin_w176_c10: x_w176_c10 + y_w176_c10 >= 0.2482
  lat_lin_w176_c11: x_w176_c11 + y_w176_c11 >= 0.9536
  lat_lin_w176_c12: x_w176_c12 + y_w176_c12 >= 0.4326
  lat_lin_w176_c13: x_w176_c13 + y_w176_c13 >= 0.5065
  lat_lin_w176_c14: x_w176_c14 + y_w176_c14 >= 1.1219
  lat_lin_w176_c15: x_w176_c15 + y_w176_c15 >= 0.9331
  lat_lin_w176_c16: x_w176_c16 + y_w176_c16 >= 1.1743
  lat_lin_w176_c17: x_w176_c17 + y_w176_c17 >= 0.5673
  lat_lin_w176_c18: x_w176_c18 + y_w176_c18 >= 0.4043
  lat_lin_w176_c19: x_w176_c19 + y_w176_c19 >= 0.5062
  lat_lin_w176_c20: x_w176_c20 + y_w176_c20 >= 0.4556
  lat_lin_w176_c21: x_w176_c21 + y_w176_c21 >= 0.0007
  lat_lin_w176_c22: x_w176_c22 + y_w176_c22 >= 0.0891
  lat_lin_w176_c23: x_w176_c23 + y_w176_c23 >= 1.0737
  lat_lin_w176_c24: x_w176_c24 + y_w176_c24 >= 0.7903
  demand_w176: x_w176_c0 + x_w176_c1 + x_w176_c2 + x_w176_c3 + x_w176_c4 + x_w176_c5 + x_w176_c6 + x_w176_c7 + x_w176_c8 + x_w176_c9 + x_w176_c10 + x_w176_c11 + x_w176_c12 + x_w176_c13 + x_w176_c14 + x_w176_c15 + x_w176_c16 + x_w176_c17 + x_w176_c18 + x_w176_c19 + x_w176_c20 + x_w176_c21 + x_w176_c22 + x_w176_c23 + x_w176_c24 = 15
  lat_lin_w177_c0: x_w177_c0 + y_w177_c0 >= 0.1418
  lat_lin_w177_c1: x_w177_c1 + y_w177_c1 >= 0.0826
  lat_lin_w177_c2: x_w177_c2 + y_w177_c2 >= 0.0218
  lat_lin_w177_c3: x_w177_c3 + y_w177_c3 >= 0.2835
  lat_lin_w177_c4: x_w177_c4 + y_w177_c4 >= 0.2972
  lat_lin_w177_c5: x_w177_c5 + y_w177_c5 >= 0.2169
  lat_lin_w177_c6: x_w177_c6 + y_w177_c6 >= 0.4924
  lat_lin_w177_c7: x_w177_c7 + y_w177_c7 >= 0.1769
  lat_lin_w177_c8: x_w177_c8 + y_w177_c8 >= 0.4158
  lat_lin_w177_c9: x_w177_c9 + y_w177_c9 >= 0.0017
  lat_lin_w177_c10: x_w177_c10 + y_w177_c10 >= 0.1832
  lat_lin_w177_c11: x_w177_c11 + y_w177_c11 >= 0.5622
  lat_lin_w177_c12: x_w177_c12 + y_w177_c12 >= 0.4350
  lat_lin_w177_c13: x_w177_c13 + y_w177_c13 >= 0.3358
  lat_lin_w177_c14: x_w177_c14 + y_w177_c14 >= 0.0686
  lat_lin_w177_c15: x_w177_c15 + y_w177_c15 >= 0.3204
  lat_lin_w177_c16: x_w177_c16 + y_w177_c16 >= 0.1934
  lat_lin_w177_c17: x_w177_c17 + y_w177_c17 >= 0.0473
  lat_lin_w177_c18: x_w177_c18 + y_w177_c18 >= 0.1329
  lat_lin_w177_c19: x_w177_c19 + y_w177_c19 >= 0.3436
  lat_lin_w177_c20: x_w177_c20 + y_w177_c20 >= 0.2243
  lat_lin_w177_c21: x_w177_c21 + y_w177_c21 >= 0.5213
  lat_lin_w177_c22: x_w177_c22 + y_w177_c22 >= 0.0364
  lat_lin_w177_c23: x_w177_c23 + y_w177_c23 >= 0.2660
  lat_lin_w177_c24: x_w177_c24 + y_w177_c24 >= 0.1988
  demand_w177: x_w177_c0 + x_w177_c1 + x_w177_c2 + x_w177_c3 + x_w177_c4 + x_w177_c5 + x_w177_c6 + x_w177_c7 + x_w177_c8 + x_w177_c9 + x_w177_c10 + x_w177_c11 + x_w177_c12 + x_w177_c13 + x_w177_c14 + x_w177_c15 + x_w177_c16 + x_w177_c17 + x_w177_c18 + x_w177_c19 + x_w177_c20 + x_w177_c21 + x_w177_c22 + x_w177_c23 + x_w177_c24 = 6
  lat_lin_w178_c0: x_w178_c0 + y_w178_c0 >= 0.5728
  lat_lin_w178_c1: x_w178_c1 + y_w178_c1 >= 0.0150
  lat_lin_w178_c2: x_w178_c2 + y_w178_c2 >= 0.7157
  lat_lin_w178_c3: x_w178_c3 + y_w178_c3 >= 0.1586
  lat_lin_w178_c4: x_w178_c4 + y_w178_c4 >= 0.7292
  lat_lin_w178_c5: x_w178_c5 + y_w178_c5 >= 0.3989
  lat_lin_w178_c6: x_w178_c6 + y_w178_c6 >= 0.5280
  lat_lin_w178_c7: x_w178_c7 + y_w178_c7 >= 0.1571
  lat_lin_w178_c8: x_w178_c8 + y_w178_c8 >= 0.8546
  lat_lin_w178_c9: x_w178_c9 + y_w178_c9 >= 0.8477
  lat_lin_w178_c10: x_w178_c10 + y_w178_c10 >= 0.5837
  lat_lin_w178_c11: x_w178_c11 + y_w178_c11 >= 0.1491
  lat_lin_w178_c12: x_w178_c12 + y_w178_c12 >= 0.1158
  lat_lin_w178_c13: x_w178_c13 + y_w178_c13 >= 0.2390
  lat_lin_w178_c14: x_w178_c14 + y_w178_c14 >= 0.2244
  lat_lin_w178_c15: x_w178_c15 + y_w178_c15 >= 0.8023
  lat_lin_w178_c16: x_w178_c16 + y_w178_c16 >= 0.8316
  lat_lin_w178_c17: x_w178_c17 + y_w178_c17 >= 0.4183
  lat_lin_w178_c18: x_w178_c18 + y_w178_c18 >= 0.1446
  lat_lin_w178_c19: x_w178_c19 + y_w178_c19 >= 0.5371
  lat_lin_w178_c20: x_w178_c20 + y_w178_c20 >= 0.7784
  lat_lin_w178_c21: x_w178_c21 + y_w178_c21 >= 0.0322
  lat_lin_w178_c22: x_w178_c22 + y_w178_c22 >= 0.7613
  lat_lin_w178_c23: x_w178_c23 + y_w178_c23 >= 0.7101
  lat_lin_w178_c24: x_w178_c24 + y_w178_c24 >= 0.6945
  demand_w178: x_w178_c0 + x_w178_c1 + x_w178_c2 + x_w178_c3 + x_w178_c4 + x_w178_c5 + x_w178_c6 + x_w178_c7 + x_w178_c8 + x_w178_c9 + x_w178_c10 + x_w178_c11 + x_w178_c12 + x_w178_c13 + x_w178_c14 + x_w178_c15 + x_w178_c16 + x_w178_c17 + x_w178_c18 + x_w178_c19 + x_w178_c20 + x_w178_c21 + x_w178_c22 + x_w178_c23 + x_w178_c24 = 12
  lat_lin_w179_c0: x_w179_c0 + y_w179_c0 >= 0.2479
  lat_lin_w179_c1: x_w179_c1 + y_w179_c1 >= 0.2735
  lat_lin_w179_c2: x_w179_c2 + y_w179_c2 >= 0.1393
  lat_lin_w179_c3: x_w179_c3 + y_w179_c3 >= 0.2776
  lat_lin_w179_c4: x_w179_c4 + y_w179_c4 >= 0.1720
  lat_lin_w179_c5: x_w179_c5 + y_w179_c5 >= 0.2117
  lat_lin_w179_c6: x_w179_c6 + y_w179_c6 >= 0.0099
  lat_lin_w179_c7: x_w179_c7 + y_w179_c7 >= 0.1256
  lat_lin_w179_c8: x_w179_c8 + y_w179_c8 >= 0.0587
  lat_lin_w179_c9: x_w179_c9 + y_w179_c9 >= 0.1927
  lat_lin_w179_c10: x_w179_c10 + y_w179_c10 >= 0.0275
  lat_lin_w179_c11: x_w179_c11 + y_w179_c11 >= 0.0792
  lat_lin_w179_c12: x_w179_c12 + y_w179_c12 >= 0.1730
  lat_lin_w179_c13: x_w179_c13 + y_w179_c13 >= 0.1356
  lat_lin_w179_c14: x_w179_c14 + y_w179_c14 >= 0.0916
  lat_lin_w179_c15: x_w179_c15 + y_w179_c15 >= 0.2689
  lat_lin_w179_c16: x_w179_c16 + y_w179_c16 >= 0.2547
  lat_lin_w179_c17: x_w179_c17 + y_w179_c17 >= 0.1203
  lat_lin_w179_c18: x_w179_c18 + y_w179_c18 >= 0.2488
  lat_lin_w179_c19: x_w179_c19 + y_w179_c19 >= 0.3058
  lat_lin_w179_c20: x_w179_c20 + y_w179_c20 >= 0.0811
  lat_lin_w179_c21: x_w179_c21 + y_w179_c21 >= 0.1318
  lat_lin_w179_c22: x_w179_c22 + y_w179_c22 >= 0.2496
  lat_lin_w179_c23: x_w179_c23 + y_w179_c23 >= 0.0837
  lat_lin_w179_c24: x_w179_c24 + y_w179_c24 >= 0.0397
  demand_w179: x_w179_c0 + x_w179_c1 + x_w179_c2 + x_w179_c3 + x_w179_c4 + x_w179_c5 + x_w179_c6 + x_w179_c7 + x_w179_c8 + x_w179_c9 + x_w179_c10 + x_w179_c11 + x_w179_c12 + x_w179_c13 + x_w179_c14 + x_w179_c15 + x_w179_c16 + x_w179_c17 + x_w179_c18 + x_w179_c19 + x_w179_c20 + x_w179_c21 + x_w179_c22 + x_w179_c23 + x_w179_c24 = 4
  lat_lin_w180_c0: x_w180_c0 + y_w180_c0 >= 0.4820
  lat_lin_w180_c1: x_w180_c1 + y_w180_c1 >= 0.0634
  lat_lin_w180_c2: x_w180_c2 + y_w180_c2 >= 0.4224
  lat_lin_w180_c3: x_w180_c3 + y_w180_c3 >= 0.1772
  lat_lin_w180_c4: x_w180_c4 + y_w180_c4 >= 0.0494
  lat_lin_w180_c5: x_w180_c5 + y_w180_c5 >= 0.4626
  lat_lin_w180_c6: x_w180_c6 + y_w180_c6 >= 0.3199
  lat_lin_w180_c7: x_w180_c7 + y_w180_c7 >= 0.2567
  lat_lin_w180_c8: x_w180_c8 + y_w180_c8 >= 0.1427
  lat_lin_w180_c9: x_w180_c9 + y_w180_c9 >= 0.5203
  lat_lin_w180_c10: x_w180_c10 + y_w180_c10 >= 0.3830
  lat_lin_w180_c11: x_w180_c11 + y_w180_c11 >= 0.0883
  lat_lin_w180_c12: x_w180_c12 + y_w180_c12 >= 0.2885
  lat_lin_w180_c13: x_w180_c13 + y_w180_c13 >= 0.2071
  lat_lin_w180_c14: x_w180_c14 + y_w180_c14 >= 0.4612
  lat_lin_w180_c15: x_w180_c15 + y_w180_c15 >= 0.3536
  lat_lin_w180_c16: x_w180_c16 + y_w180_c16 >= 0.3584
  lat_lin_w180_c17: x_w180_c17 + y_w180_c17 >= 0.3841
  lat_lin_w180_c18: x_w180_c18 + y_w180_c18 >= 0.2871
  lat_lin_w180_c19: x_w180_c19 + y_w180_c19 >= 0.1013
  lat_lin_w180_c20: x_w180_c20 + y_w180_c20 >= 0.5644
  lat_lin_w180_c21: x_w180_c21 + y_w180_c21 >= 0.0670
  lat_lin_w180_c22: x_w180_c22 + y_w180_c22 >= 0.0379
  lat_lin_w180_c23: x_w180_c23 + y_w180_c23 >= 0.0153
  lat_lin_w180_c24: x_w180_c24 + y_w180_c24 >= 0.5065
  demand_w180: x_w180_c0 + x_w180_c1 + x_w180_c2 + x_w180_c3 + x_w180_c4 + x_w180_c5 + x_w180_c6 + x_w180_c7 + x_w180_c8 + x_w180_c9 + x_w180_c10 + x_w180_c11 + x_w180_c12 + x_w180_c13 + x_w180_c14 + x_w180_c15 + x_w180_c16 + x_w180_c17 + x_w180_c18 + x_w180_c19 + x_w180_c20 + x_w180_c21 + x_w180_c22 + x_w180_c23 + x_w180_c24 = 7
  lat_lin_w181_c0: x_w181_c0 + y_w181_c0 >= 0.3665
  lat_lin_w181_c1: x_w181_c1 + y_w181_c1 >= 0.1069
  lat_lin_w181_c2: x_w181_c2 + y_w181_c2 >= 0.4678
  lat_lin_w181_c3: x_w181_c3 + y_w181_c3 >= 0.4884
  lat_lin_w181_c4: x_w181_c4 + y_w181_c4 >= 0.1864
  lat_lin_w181_c5: x_w181_c5 + y_w181_c5 >= 0.1981
  lat_lin_w181_c6: x_w181_c6 + y_w181_c6 >= 0.3292
  lat_lin_w181_c7: x_w181_c7 + y_w181_c7 >= 0.3161
  lat_lin_w181_c8: x_w181_c8 + y_w181_c8 >= 0.1745
  lat_lin_w181_c9: x_w181_c9 + y_w181_c9 >= 0.3335
  lat_lin_w181_c10: x_w181_c10 + y_w181_c10 >= 0.4555
  lat_lin_w181_c11: x_w181_c11 + y_w181_c11 >= 0.5676
  lat_lin_w181_c12: x_w181_c12 + y_w181_c12 >= 0.0643
  lat_lin_w181_c13: x_w181_c13 + y_w181_c13 >= 0.1729
  lat_lin_w181_c14: x_w181_c14 + y_w181_c14 >= 0.4340
  lat_lin_w181_c15: x_w181_c15 + y_w181_c15 >= 0.4178
  lat_lin_w181_c16: x_w181_c16 + y_w181_c16 >= 0.3004
  lat_lin_w181_c17: x_w181_c17 + y_w181_c17 >= 0.1586
  lat_lin_w181_c18: x_w181_c18 + y_w181_c18 >= 0.4886
  lat_lin_w181_c19: x_w181_c19 + y_w181_c19 >= 0.5588
  lat_lin_w181_c20: x_w181_c20 + y_w181_c20 >= 0.2002
  lat_lin_w181_c21: x_w181_c21 + y_w181_c21 >= 0.5397
  lat_lin_w181_c22: x_w181_c22 + y_w181_c22 >= 0.3154
  lat_lin_w181_c23: x_w181_c23 + y_w181_c23 >= 0.2137
  lat_lin_w181_c24: x_w181_c24 + y_w181_c24 >= 0.1450
  demand_w181: x_w181_c0 + x_w181_c1 + x_w181_c2 + x_w181_c3 + x_w181_c4 + x_w181_c5 + x_w181_c6 + x_w181_c7 + x_w181_c8 + x_w181_c9 + x_w181_c10 + x_w181_c11 + x_w181_c12 + x_w181_c13 + x_w181_c14 + x_w181_c15 + x_w181_c16 + x_w181_c17 + x_w181_c18 + x_w181_c19 + x_w181_c20 + x_w181_c21 + x_w181_c22 + x_w181_c23 + x_w181_c24 = 8
  lat_lin_w182_c0: x_w182_c0 + y_w182_c0 >= 0.7421
  lat_lin_w182_c1: x_w182_c1 + y_w182_c1 >= 0.7831
  lat_lin_w182_c2: x_w182_c2 + y_w182_c2 >= 0.8070
  lat_lin_w182_c3: x_w182_c3 + y_w182_c3 >= 0.1456
  lat_lin_w182_c4: x_w182_c4 + y_w182_c4 >= 0.8685
  lat_lin_w182_c5: x_w182_c5 + y_w182_c5 >= 0.4922
  lat_lin_w182_c6: x_w182_c6 + y_w182_c6 >= 0.6573
  lat_lin_w182_c7: x_w182_c7 + y_w182_c7 >= 0.4569
  lat_lin_w182_c8: x_w182_c8 + y_w182_c8 >= 0.0357
  lat_lin_w182_c9: x_w182_c9 + y_w182_c9 >= 0.3775
  lat_lin_w182_c10: x_w182_c10 + y_w182_c10 >= 0.7456
  lat_lin_w182_c11: x_w182_c11 + y_w182_c11 >= 0.1899
  lat_lin_w182_c12: x_w182_c12 + y_w182_c12 >= 0.2193
  lat_lin_w182_c13: x_w182_c13 + y_w182_c13 >= 0.1243
  lat_lin_w182_c14: x_w182_c14 + y_w182_c14 >= 0.5765
  lat_lin_w182_c15: x_w182_c15 + y_w182_c15 >= 0.0268
  lat_lin_w182_c16: x_w182_c16 + y_w182_c16 >= 0.7997
  lat_lin_w182_c17: x_w182_c17 + y_w182_c17 >= 0.8670
  lat_lin_w182_c18: x_w182_c18 + y_w182_c18 >= 0.1386
  lat_lin_w182_c19: x_w182_c19 + y_w182_c19 >= 0.4647
  lat_lin_w182_c20: x_w182_c20 + y_w182_c20 >= 0.7097
  lat_lin_w182_c21: x_w182_c21 + y_w182_c21 >= 0.7180
  lat_lin_w182_c22: x_w182_c22 + y_w182_c22 >= 0.1421
  lat_lin_w182_c23: x_w182_c23 + y_w182_c23 >= 0.5959
  lat_lin_w182_c24: x_w182_c24 + y_w182_c24 >= 0.3158
  demand_w182: x_w182_c0 + x_w182_c1 + x_w182_c2 + x_w182_c3 + x_w182_c4 + x_w182_c5 + x_w182_c6 + x_w182_c7 + x_w182_c8 + x_w182_c9 + x_w182_c10 + x_w182_c11 + x_w182_c12 + x_w182_c13 + x_w182_c14 + x_w182_c15 + x_w182_c16 + x_w182_c17 + x_w182_c18 + x_w182_c19 + x_w182_c20 + x_w182_c21 + x_w182_c22 + x_w182_c23 + x_w182_c24 = 12
  lat_lin_w183_c0: x_w183_c0 + y_w183_c0 >= 0.1015
  lat_lin_w183_c1: x_w183_c1 + y_w183_c1 >= 0.1122
  lat_lin_w183_c2: x_w183_c2 + y_w183_c2 >= 0.0367
  lat_lin_w183_c3: x_w183_c3 + y_w183_c3 >= 0.0130
  lat_lin_w183_c4: x_w183_c4 + y_w183_c4 >= 0.2064
  lat_lin_w183_c5: x_w183_c5 + y_w183_c5 >= 0.0021
  lat_lin_w183_c6: x_w183_c6 + y_w183_c6 >= 0.1109
  lat_lin_w183_c7: x_w183_c7 + y_w183_c7 >= 0.0696
  lat_lin_w183_c8: x_w183_c8 + y_w183_c8 >= 0.0586
  lat_lin_w183_c9: x_w183_c9 + y_w183_c9 >= 0.0792
  lat_lin_w183_c10: x_w183_c10 + y_w183_c10 >= 0.2105
  lat_lin_w183_c11: x_w183_c11 + y_w183_c11 >= 0.0846
  lat_lin_w183_c12: x_w183_c12 + y_w183_c12 >= 0.0012
  lat_lin_w183_c13: x_w183_c13 + y_w183_c13 >= 0.1787
  lat_lin_w183_c14: x_w183_c14 + y_w183_c14 >= 0.2036
  lat_lin_w183_c15: x_w183_c15 + y_w183_c15 >= 0.1391
  lat_lin_w183_c16: x_w183_c16 + y_w183_c16 >= 0.1912
  lat_lin_w183_c17: x_w183_c17 + y_w183_c17 >= 0.1250
  lat_lin_w183_c18: x_w183_c18 + y_w183_c18 >= 0.0735
  lat_lin_w183_c19: x_w183_c19 + y_w183_c19 >= 0.2265
  lat_lin_w183_c20: x_w183_c20 + y_w183_c20 >= 0.1525
  lat_lin_w183_c21: x_w183_c21 + y_w183_c21 >= 0.2253
  lat_lin_w183_c22: x_w183_c22 + y_w183_c22 >= 0.1298
  lat_lin_w183_c23: x_w183_c23 + y_w183_c23 >= 0.0678
  lat_lin_w183_c24: x_w183_c24 + y_w183_c24 >= 0.2005
  demand_w183: x_w183_c0 + x_w183_c1 + x_w183_c2 + x_w183_c3 + x_w183_c4 + x_w183_c5 + x_w183_c6 + x_w183_c7 + x_w183_c8 + x_w183_c9 + x_w183_c10 + x_w183_c11 + x_w183_c12 + x_w183_c13 + x_w183_c14 + x_w183_c15 + x_w183_c16 + x_w183_c17 + x_w183_c18 + x_w183_c19 + x_w183_c20 + x_w183_c21 + x_w183_c22 + x_w183_c23 + x_w183_c24 = 3
  lat_lin_w184_c0: x_w184_c0 + y_w184_c0 >= 0.4224
  lat_lin_w184_c1: x_w184_c1 + y_w184_c1 >= 0.2727
  lat_lin_w184_c2: x_w184_c2 + y_w184_c2 >= 0.2735
  lat_lin_w184_c3: x_w184_c3 + y_w184_c3 >= 0.0843
  lat_lin_w184_c4: x_w184_c4 + y_w184_c4 >= 0.2263
  lat_lin_w184_c5: x_w184_c5 + y_w184_c5 >= 0.4036
  lat_lin_w184_c6: x_w184_c6 + y_w184_c6 >= 0.1964
  lat_lin_w184_c7: x_w184_c7 + y_w184_c7 >= 0.1011
  lat_lin_w184_c8: x_w184_c8 + y_w184_c8 >= 0.2295
  lat_lin_w184_c9: x_w184_c9 + y_w184_c9 >= 0.3175
  lat_lin_w184_c10: x_w184_c10 + y_w184_c10 >= 0.2619
  lat_lin_w184_c11: x_w184_c11 + y_w184_c11 >= 0.4352
  lat_lin_w184_c12: x_w184_c12 + y_w184_c12 >= 0.3071
  lat_lin_w184_c13: x_w184_c13 + y_w184_c13 >= 0.0928
  lat_lin_w184_c14: x_w184_c14 + y_w184_c14 >= 0.1792
  lat_lin_w184_c15: x_w184_c15 + y_w184_c15 >= 0.1502
  lat_lin_w184_c16: x_w184_c16 + y_w184_c16 >= 0.3699
  lat_lin_w184_c17: x_w184_c17 + y_w184_c17 >= 0.2627
  lat_lin_w184_c18: x_w184_c18 + y_w184_c18 >= 0.4484
  lat_lin_w184_c19: x_w184_c19 + y_w184_c19 >= 0.2479
  lat_lin_w184_c20: x_w184_c20 + y_w184_c20 >= 0.0983
  lat_lin_w184_c21: x_w184_c21 + y_w184_c21 >= 0.2198
  lat_lin_w184_c22: x_w184_c22 + y_w184_c22 >= 0.3211
  lat_lin_w184_c23: x_w184_c23 + y_w184_c23 >= 0.0363
  lat_lin_w184_c24: x_w184_c24 + y_w184_c24 >= 0.0419
  demand_w184: x_w184_c0 + x_w184_c1 + x_w184_c2 + x_w184_c3 + x_w184_c4 + x_w184_c5 + x_w184_c6 + x_w184_c7 + x_w184_c8 + x_w184_c9 + x_w184_c10 + x_w184_c11 + x_w184_c12 + x_w184_c13 + x_w184_c14 + x_w184_c15 + x_w184_c16 + x_w184_c17 + x_w184_c18 + x_w184_c19 + x_w184_c20 + x_w184_c21 + x_w184_c22 + x_w184_c23 + x_w184_c24 = 6
  lat_lin_w185_c0: x_w185_c0 + y_w185_c0 >= 0.2211
  lat_lin_w185_c1: x_w185_c1 + y_w185_c1 >= 0.7051
  lat_lin_w185_c2: x_w185_c2 + y_w185_c2 >= 0.2271
  lat_lin_w185_c3: x_w185_c3 + y_w185_c3 >= 0.2248
  lat_lin_w185_c4: x_w185_c4 + y_w185_c4 >= 0.5241
  lat_lin_w185_c5: x_w185_c5 + y_w185_c5 >= 0.8144
  lat_lin_w185_c6: x_w185_c6 + y_w185_c6 >= 0.8109
  lat_lin_w185_c7: x_w185_c7 + y_w185_c7 >= 0.3243
  lat_lin_w185_c8: x_w185_c8 + y_w185_c8 >= 0.3265
  lat_lin_w185_c9: x_w185_c9 + y_w185_c9 >= 0.1483
  lat_lin_w185_c10: x_w185_c10 + y_w185_c10 >= 0.2432
  lat_lin_w185_c11: x_w185_c11 + y_w185_c11 >= 0.0868
  lat_lin_w185_c12: x_w185_c12 + y_w185_c12 >= 0.4778
  lat_lin_w185_c13: x_w185_c13 + y_w185_c13 >= 0.2634
  lat_lin_w185_c14: x_w185_c14 + y_w185_c14 >= 0.7400
  lat_lin_w185_c15: x_w185_c15 + y_w185_c15 >= 0.2624
  lat_lin_w185_c16: x_w185_c16 + y_w185_c16 >= 0.1871
  lat_lin_w185_c17: x_w185_c17 + y_w185_c17 >= 0.8033
  lat_lin_w185_c18: x_w185_c18 + y_w185_c18 >= 0.6668
  lat_lin_w185_c19: x_w185_c19 + y_w185_c19 >= 0.8025
  lat_lin_w185_c20: x_w185_c20 + y_w185_c20 >= 0.4774
  lat_lin_w185_c21: x_w185_c21 + y_w185_c21 >= 0.0959
  lat_lin_w185_c22: x_w185_c22 + y_w185_c22 >= 0.7616
  lat_lin_w185_c23: x_w185_c23 + y_w185_c23 >= 0.3246
  lat_lin_w185_c24: x_w185_c24 + y_w185_c24 >= 0.4808
  demand_w185: x_w185_c0 + x_w185_c1 + x_w185_c2 + x_w185_c3 + x_w185_c4 + x_w185_c5 + x_w185_c6 + x_w185_c7 + x_w185_c8 + x_w185_c9 + x_w185_c10 + x_w185_c11 + x_w185_c12 + x_w185_c13 + x_w185_c14 + x_w185_c15 + x_w185_c16 + x_w185_c17 + x_w185_c18 + x_w185_c19 + x_w185_c20 + x_w185_c21 + x_w185_c22 + x_w185_c23 + x_w185_c24 = 11
  lat_lin_w186_c0: x_w186_c0 + y_w186_c0 >= 0.0692
  lat_lin_w186_c1: x_w186_c1 + y_w186_c1 >= 0.3779
  lat_lin_w186_c2: x_w186_c2 + y_w186_c2 >= 0.2864
  lat_lin_w186_c3: x_w186_c3 + y_w186_c3 >= 0.4149
  lat_lin_w186_c4: x_w186_c4 + y_w186_c4 >= 0.0456
  lat_lin_w186_c5: x_w186_c5 + y_w186_c5 >= 0.0078
  lat_lin_w186_c6: x_w186_c6 + y_w186_c6 >= 0.1773
  lat_lin_w186_c7: x_w186_c7 + y_w186_c7 >= 0.0494
  lat_lin_w186_c8: x_w186_c8 + y_w186_c8 >= 0.3184
  lat_lin_w186_c9: x_w186_c9 + y_w186_c9 >= 0.1922
  lat_lin_w186_c10: x_w186_c10 + y_w186_c10 >= 0.3114
  lat_lin_w186_c11: x_w186_c11 + y_w186_c11 >= 0.0607
  lat_lin_w186_c12: x_w186_c12 + y_w186_c12 >= 0.0904
  lat_lin_w186_c13: x_w186_c13 + y_w186_c13 >= 0.1447
  lat_lin_w186_c14: x_w186_c14 + y_w186_c14 >= 0.2548
  lat_lin_w186_c15: x_w186_c15 + y_w186_c15 >= 0.1551
  lat_lin_w186_c16: x_w186_c16 + y_w186_c16 >= 0.2135
  lat_lin_w186_c17: x_w186_c17 + y_w186_c17 >= 0.2161
  lat_lin_w186_c18: x_w186_c18 + y_w186_c18 >= 0.2546
  lat_lin_w186_c19: x_w186_c19 + y_w186_c19 >= 0.0650
  lat_lin_w186_c20: x_w186_c20 + y_w186_c20 >= 0.3145
  lat_lin_w186_c21: x_w186_c21 + y_w186_c21 >= 0.3840
  lat_lin_w186_c22: x_w186_c22 + y_w186_c22 >= 0.2233
  lat_lin_w186_c23: x_w186_c23 + y_w186_c23 >= 0.2530
  lat_lin_w186_c24: x_w186_c24 + y_w186_c24 >= 0.1197
  demand_w186: x_w186_c0 + x_w186_c1 + x_w186_c2 + x_w186_c3 + x_w186_c4 + x_w186_c5 + x_w186_c6 + x_w186_c7 + x_w186_c8 + x_w186_c9 + x_w186_c10 + x_w186_c11 + x_w186_c12 + x_w186_c13 + x_w186_c14 + x_w186_c15 + x_w186_c16 + x_w186_c17 + x_w186_c18 + x_w186_c19 + x_w186_c20 + x_w186_c21 + x_w186_c22 + x_w186_c23 + x_w186_c24 = 5
  lat_lin_w187_c0: x_w187_c0 + y_w187_c0 >= 0.0561
  lat_lin_w187_c1: x_w187_c1 + y_w187_c1 >= 0.0742
  lat_lin_w187_c2: x_w187_c2 + y_w187_c2 >= 0.1694
  lat_lin_w187_c3: x_w187_c3 + y_w187_c3 >= 0.0177
  lat_lin_w187_c4: x_w187_c4 + y_w187_c4 >= 0.1665
  lat_lin_w187_c5: x_w187_c5 + y_w187_c5 >= 0.1430
  lat_lin_w187_c6: x_w187_c6 + y_w187_c6 >= 0.0301
  lat_lin_w187_c7: x_w187_c7 + y_w187_c7 >= 0.0120
  lat_lin_w187_c8: x_w187_c8 + y_w187_c8 >= 0.1284
  lat_lin_w187_c9: x_w187_c9 + y_w187_c9 >= 0.2174
  lat_lin_w187_c10: x_w187_c10 + y_w187_c10 >= 0.0576
  lat_lin_w187_c11: x_w187_c11 + y_w187_c11 >= 0.0764
  lat_lin_w187_c12: x_w187_c12 + y_w187_c12 >= 0.0880
  lat_lin_w187_c13: x_w187_c13 + y_w187_c13 >= 0.2246
  lat_lin_w187_c14: x_w187_c14 + y_w187_c14 >= 0.1279
  lat_lin_w187_c15: x_w187_c15 + y_w187_c15 >= 0.2402
  lat_lin_w187_c16: x_w187_c16 + y_w187_c16 >= 0.1368
  lat_lin_w187_c17: x_w187_c17 + y_w187_c17 >= 0.2130
  lat_lin_w187_c18: x_w187_c18 + y_w187_c18 >= 0.0279
  lat_lin_w187_c19: x_w187_c19 + y_w187_c19 >= 0.0512
  lat_lin_w187_c20: x_w187_c20 + y_w187_c20 >= 0.0564
  lat_lin_w187_c21: x_w187_c21 + y_w187_c21 >= 0.1021
  lat_lin_w187_c22: x_w187_c22 + y_w187_c22 >= 0.2458
  lat_lin_w187_c23: x_w187_c23 + y_w187_c23 >= 0.1046
  lat_lin_w187_c24: x_w187_c24 + y_w187_c24 >= 0.2327
  demand_w187: x_w187_c0 + x_w187_c1 + x_w187_c2 + x_w187_c3 + x_w187_c4 + x_w187_c5 + x_w187_c6 + x_w187_c7 + x_w187_c8 + x_w187_c9 + x_w187_c10 + x_w187_c11 + x_w187_c12 + x_w187_c13 + x_w187_c14 + x_w187_c15 + x_w187_c16 + x_w187_c17 + x_w187_c18 + x_w187_c19 + x_w187_c20 + x_w187_c21 + x_w187_c22 + x_w187_c23 + x_w187_c24 = 3
  lat_lin_w188_c0: x_w188_c0 + y_w188_c0 >= 0.8167
  lat_lin_w188_c1: x_w188_c1 + y_w188_c1 >= 0.5359
  lat_lin_w188_c2: x_w188_c2 + y_w188_c2 >= 0.1510
  lat_lin_w188_c3: x_w188_c3 + y_w188_c3 >= 0.3306
  lat_lin_w188_c4: x_w188_c4 + y_w188_c4 >= 0.6938
  lat_lin_w188_c5: x_w188_c5 + y_w188_c5 >= 0.2684
  lat_lin_w188_c6: x_w188_c6 + y_w188_c6 >= 0.6980
  lat_lin_w188_c7: x_w188_c7 + y_w188_c7 >= 0.3375
  lat_lin_w188_c8: x_w188_c8 + y_w188_c8 >= 0.0227
  lat_lin_w188_c9: x_w188_c9 + y_w188_c9 >= 0.7439
  lat_lin_w188_c10: x_w188_c10 + y_w188_c10 >= 0.6009
  lat_lin_w188_c11: x_w188_c11 + y_w188_c11 >= 0.7494
  lat_lin_w188_c12: x_w188_c12 + y_w188_c12 >= 0.5458
  lat_lin_w188_c13: x_w188_c13 + y_w188_c13 >= 0.7950
  lat_lin_w188_c14: x_w188_c14 + y_w188_c14 >= 0.2403
  lat_lin_w188_c15: x_w188_c15 + y_w188_c15 >= 0.4057
  lat_lin_w188_c16: x_w188_c16 + y_w188_c16 >= 0.7620
  lat_lin_w188_c17: x_w188_c17 + y_w188_c17 >= 0.5817
  lat_lin_w188_c18: x_w188_c18 + y_w188_c18 >= 0.4176
  lat_lin_w188_c19: x_w188_c19 + y_w188_c19 >= 0.4078
  lat_lin_w188_c20: x_w188_c20 + y_w188_c20 >= 0.8058
  lat_lin_w188_c21: x_w188_c21 + y_w188_c21 >= 0.1296
  lat_lin_w188_c22: x_w188_c22 + y_w188_c22 >= 0.7921
  lat_lin_w188_c23: x_w188_c23 + y_w188_c23 >= 0.4452
  lat_lin_w188_c24: x_w188_c24 + y_w188_c24 >= 0.7226
  demand_w188: x_w188_c0 + x_w188_c1 + x_w188_c2 + x_w188_c3 + x_w188_c4 + x_w188_c5 + x_w188_c6 + x_w188_c7 + x_w188_c8 + x_w188_c9 + x_w188_c10 + x_w188_c11 + x_w188_c12 + x_w188_c13 + x_w188_c14 + x_w188_c15 + x_w188_c16 + x_w188_c17 + x_w188_c18 + x_w188_c19 + x_w188_c20 + x_w188_c21 + x_w188_c22 + x_w188_c23 + x_w188_c24 = 13
  lat_lin_w189_c0: x_w189_c0 + y_w189_c0 >= 0.2380
  lat_lin_w189_c1: x_w189_c1 + y_w189_c1 >= 0.0365
  lat_lin_w189_c2: x_w189_c2 + y_w189_c2 >= 0.0022
  lat_lin_w189_c3: x_w189_c3 + y_w189_c3 >= 0.2905
  lat_lin_w189_c4: x_w189_c4 + y_w189_c4 >= 0.1889
  lat_lin_w189_c5: x_w189_c5 + y_w189_c5 >= 0.1313
  lat_lin_w189_c6: x_w189_c6 + y_w189_c6 >= 0.2827
  lat_lin_w189_c7: x_w189_c7 + y_w189_c7 >= 0.1216
  lat_lin_w189_c8: x_w189_c8 + y_w189_c8 >= 0.0656
  lat_lin_w189_c9: x_w189_c9 + y_w189_c9 >= 0.1728
  lat_lin_w189_c10: x_w189_c10 + y_w189_c10 >= 0.1544
  lat_lin_w189_c11: x_w189_c11 + y_w189_c11 >= 0.1816
  lat_lin_w189_c12: x_w189_c12 + y_w189_c12 >= 0.3252
  lat_lin_w189_c13: x_w189_c13 + y_w189_c13 >= 0.2018
  lat_lin_w189_c14: x_w189_c14 + y_w189_c14 >= 0.0065
  lat_lin_w189_c15: x_w189_c15 + y_w189_c15 >= 0.0789
  lat_lin_w189_c16: x_w189_c16 + y_w189_c16 >= 0.2839
  lat_lin_w189_c17: x_w189_c17 + y_w189_c17 >= 0.3019
  lat_lin_w189_c18: x_w189_c18 + y_w189_c18 >= 0.1590
  lat_lin_w189_c19: x_w189_c19 + y_w189_c19 >= 0.0338
  lat_lin_w189_c20: x_w189_c20 + y_w189_c20 >= 0.2630
  lat_lin_w189_c21: x_w189_c21 + y_w189_c21 >= 0.0180
  lat_lin_w189_c22: x_w189_c22 + y_w189_c22 >= 0.0818
  lat_lin_w189_c23: x_w189_c23 + y_w189_c23 >= 0.2393
  lat_lin_w189_c24: x_w189_c24 + y_w189_c24 >= 0.1408
  demand_w189: x_w189_c0 + x_w189_c1 + x_w189_c2 + x_w189_c3 + x_w189_c4 + x_w189_c5 + x_w189_c6 + x_w189_c7 + x_w189_c8 + x_w189_c9 + x_w189_c10 + x_w189_c11 + x_w189_c12 + x_w189_c13 + x_w189_c14 + x_w189_c15 + x_w189_c16 + x_w189_c17 + x_w189_c18 + x_w189_c19 + x_w189_c20 + x_w189_c21 + x_w189_c22 + x_w189_c23 + x_w189_c24 = 4
  lat_lin_w190_c0: x_w190_c0 + y_w190_c0 >= 0.1133
  lat_lin_w190_c1: x_w190_c1 + y_w190_c1 >= 0.1025
  lat_lin_w190_c2: x_w190_c2 + y_w190_c2 >= 0.0288
  lat_lin_w190_c3: x_w190_c3 + y_w190_c3 >= 0.0108
  lat_lin_w190_c4: x_w190_c4 + y_w190_c4 >= 0.1176
  lat_lin_w190_c5: x_w190_c5 + y_w190_c5 >= 0.0660
  lat_lin_w190_c6: x_w190_c6 + y_w190_c6 >= 0.2176
  lat_lin_w190_c7: x_w190_c7 + y_w190_c7 >= 0.2368
  lat_lin_w190_c8: x_w190_c8 + y_w190_c8 >= 0.0734
  lat_lin_w190_c9: x_w190_c9 + y_w190_c9 >= 0.2270
  lat_lin_w190_c10: x_w190_c10 + y_w190_c10 >= 0.0044
  lat_lin_w190_c11: x_w190_c11 + y_w190_c11 >= 0.0168
  lat_lin_w190_c12: x_w190_c12 + y_w190_c12 >= 0.2125
  lat_lin_w190_c13: x_w190_c13 + y_w190_c13 >= 0.1585
  lat_lin_w190_c14: x_w190_c14 + y_w190_c14 >= 0.0662
  lat_lin_w190_c15: x_w190_c15 + y_w190_c15 >= 0.0515
  lat_lin_w190_c16: x_w190_c16 + y_w190_c16 >= 0.2164
  lat_lin_w190_c17: x_w190_c17 + y_w190_c17 >= 0.1401
  lat_lin_w190_c18: x_w190_c18 + y_w190_c18 >= 0.1404
  lat_lin_w190_c19: x_w190_c19 + y_w190_c19 >= 0.1060
  lat_lin_w190_c20: x_w190_c20 + y_w190_c20 >= 0.1548
  lat_lin_w190_c21: x_w190_c21 + y_w190_c21 >= 0.0630
  lat_lin_w190_c22: x_w190_c22 + y_w190_c22 >= 0.1508
  lat_lin_w190_c23: x_w190_c23 + y_w190_c23 >= 0.1350
  lat_lin_w190_c24: x_w190_c24 + y_w190_c24 >= 0.1898
  demand_w190: x_w190_c0 + x_w190_c1 + x_w190_c2 + x_w190_c3 + x_w190_c4 + x_w190_c5 + x_w190_c6 + x_w190_c7 + x_w190_c8 + x_w190_c9 + x_w190_c10 + x_w190_c11 + x_w190_c12 + x_w190_c13 + x_w190_c14 + x_w190_c15 + x_w190_c16 + x_w190_c17 + x_w190_c18 + x_w190_c19 + x_w190_c20 + x_w190_c21 + x_w190_c22 + x_w190_c23 + x_w190_c24 = 3
  lat_lin_w191_c0: x_w191_c0 + y_w191_c0 >= 0.1037
  lat_lin_w191_c1: x_w191_c1 + y_w191_c1 >= 0.1484
  lat_lin_w191_c2: x_w191_c2 + y_w191_c2 >= 0.1804
  lat_lin_w191_c3: x_w191_c3 + y_w191_c3 >= 0.1125
  lat_lin_w191_c4: x_w191_c4 + y_w191_c4 >= 0.1722
  lat_lin_w191_c5: x_w191_c5 + y_w191_c5 >= 0.0428
  lat_lin_w191_c6: x_w191_c6 + y_w191_c6 >= 0.1219
  lat_lin_w191_c7: x_w191_c7 + y_w191_c7 >= 0.1503
  lat_lin_w191_c8: x_w191_c8 + y_w191_c8 >= 0.0859
  lat_lin_w191_c9: x_w191_c9 + y_w191_c9 >= 0.0485
  lat_lin_w191_c10: x_w191_c10 + y_w191_c10 >= 0.0418
  lat_lin_w191_c11: x_w191_c11 + y_w191_c11 >= 0.1151
  lat_lin_w191_c12: x_w191_c12 + y_w191_c12 >= 0.1225
  lat_lin_w191_c13: x_w191_c13 + y_w191_c13 >= 0.0185
  lat_lin_w191_c14: x_w191_c14 + y_w191_c14 >= 0.1922
  lat_lin_w191_c15: x_w191_c15 + y_w191_c15 >= 0.1717
  lat_lin_w191_c16: x_w191_c16 + y_w191_c16 >= 0.0296
  lat_lin_w191_c17: x_w191_c17 + y_w191_c17 >= 0.1368
  lat_lin_w191_c18: x_w191_c18 + y_w191_c18 >= 0.1849
  lat_lin_w191_c19: x_w191_c19 + y_w191_c19 >= 0.0992
  lat_lin_w191_c20: x_w191_c20 + y_w191_c20 >= 0.0315
  lat_lin_w191_c21: x_w191_c21 + y_w191_c21 >= 0.1835
  lat_lin_w191_c22: x_w191_c22 + y_w191_c22 >= 0.1446
  lat_lin_w191_c23: x_w191_c23 + y_w191_c23 >= 0.1830
  lat_lin_w191_c24: x_w191_c24 + y_w191_c24 >= 0.1785
  demand_w191: x_w191_c0 + x_w191_c1 + x_w191_c2 + x_w191_c3 + x_w191_c4 + x_w191_c5 + x_w191_c6 + x_w191_c7 + x_w191_c8 + x_w191_c9 + x_w191_c10 + x_w191_c11 + x_w191_c12 + x_w191_c13 + x_w191_c14 + x_w191_c15 + x_w191_c16 + x_w191_c17 + x_w191_c18 + x_w191_c19 + x_w191_c20 + x_w191_c21 + x_w191_c22 + x_w191_c23 + x_w191_c24 = 3
  lat_lin_w192_c0: x_w192_c0 + y_w192_c0 >= 0.3379
  lat_lin_w192_c1: x_w192_c1 + y_w192_c1 >= 0.0038
  lat_lin_w192_c2: x_w192_c2 + y_w192_c2 >= 0.4285
  lat_lin_w192_c3: x_w192_c3 + y_w192_c3 >= 0.5237
  lat_lin_w192_c4: x_w192_c4 + y_w192_c4 >= 0.0412
  lat_lin_w192_c5: x_w192_c5 + y_w192_c5 >= 0.6108
  lat_lin_w192_c6: x_w192_c6 + y_w192_c6 >= 0.8179
  lat_lin_w192_c7: x_w192_c7 + y_w192_c7 >= 0.3097
  lat_lin_w192_c8: x_w192_c8 + y_w192_c8 >= 0.0558
  lat_lin_w192_c9: x_w192_c9 + y_w192_c9 >= 0.2338
  lat_lin_w192_c10: x_w192_c10 + y_w192_c10 >= 0.6704
  lat_lin_w192_c11: x_w192_c11 + y_w192_c11 >= 0.5800
  lat_lin_w192_c12: x_w192_c12 + y_w192_c12 >= 0.2344
  lat_lin_w192_c13: x_w192_c13 + y_w192_c13 >= 0.1060
  lat_lin_w192_c14: x_w192_c14 + y_w192_c14 >= 0.7637
  lat_lin_w192_c15: x_w192_c15 + y_w192_c15 >= 0.2127
  lat_lin_w192_c16: x_w192_c16 + y_w192_c16 >= 0.7597
  lat_lin_w192_c17: x_w192_c17 + y_w192_c17 >= 0.0320
  lat_lin_w192_c18: x_w192_c18 + y_w192_c18 >= 0.2792
  lat_lin_w192_c19: x_w192_c19 + y_w192_c19 >= 0.5739
  lat_lin_w192_c20: x_w192_c20 + y_w192_c20 >= 0.4378
  lat_lin_w192_c21: x_w192_c21 + y_w192_c21 >= 0.2532
  lat_lin_w192_c22: x_w192_c22 + y_w192_c22 >= 0.2947
  lat_lin_w192_c23: x_w192_c23 + y_w192_c23 >= 0.3941
  lat_lin_w192_c24: x_w192_c24 + y_w192_c24 >= 0.0449
  demand_w192: x_w192_c0 + x_w192_c1 + x_w192_c2 + x_w192_c3 + x_w192_c4 + x_w192_c5 + x_w192_c6 + x_w192_c7 + x_w192_c8 + x_w192_c9 + x_w192_c10 + x_w192_c11 + x_w192_c12 + x_w192_c13 + x_w192_c14 + x_w192_c15 + x_w192_c16 + x_w192_c17 + x_w192_c18 + x_w192_c19 + x_w192_c20 + x_w192_c21 + x_w192_c22 + x_w192_c23 + x_w192_c24 = 9
  lat_lin_w193_c0: x_w193_c0 + y_w193_c0 >= 0.0322
  lat_lin_w193_c1: x_w193_c1 + y_w193_c1 >= 0.1286
  lat_lin_w193_c2: x_w193_c2 + y_w193_c2 >= 0.4461
  lat_lin_w193_c3: x_w193_c3 + y_w193_c3 >= 0.4710
  lat_lin_w193_c4: x_w193_c4 + y_w193_c4 >= 0.4449
  lat_lin_w193_c5: x_w193_c5 + y_w193_c5 >= 0.2166
  lat_lin_w193_c6: x_w193_c6 + y_w193_c6 >= 0.1836
  lat_lin_w193_c7: x_w193_c7 + y_w193_c7 >= 0.3484
  lat_lin_w193_c8: x_w193_c8 + y_w193_c8 >= 0.3920
  lat_lin_w193_c9: x_w193_c9 + y_w193_c9 >= 0.5010
  lat_lin_w193_c10: x_w193_c10 + y_w193_c10 >= 0.5235
  lat_lin_w193_c11: x_w193_c11 + y_w193_c11 >= 0.2229
  lat_lin_w193_c12: x_w193_c12 + y_w193_c12 >= 0.6695
  lat_lin_w193_c13: x_w193_c13 + y_w193_c13 >= 0.3987
  lat_lin_w193_c14: x_w193_c14 + y_w193_c14 >= 0.6492
  lat_lin_w193_c15: x_w193_c15 + y_w193_c15 >= 0.6805
  lat_lin_w193_c16: x_w193_c16 + y_w193_c16 >= 0.1096
  lat_lin_w193_c17: x_w193_c17 + y_w193_c17 >= 0.5068
  lat_lin_w193_c18: x_w193_c18 + y_w193_c18 >= 0.0243
  lat_lin_w193_c19: x_w193_c19 + y_w193_c19 >= 0.3907
  lat_lin_w193_c20: x_w193_c20 + y_w193_c20 >= 0.6244
  lat_lin_w193_c21: x_w193_c21 + y_w193_c21 >= 0.6402
  lat_lin_w193_c22: x_w193_c22 + y_w193_c22 >= 0.4715
  lat_lin_w193_c23: x_w193_c23 + y_w193_c23 >= 0.3183
  lat_lin_w193_c24: x_w193_c24 + y_w193_c24 >= 0.6052
  demand_w193: x_w193_c0 + x_w193_c1 + x_w193_c2 + x_w193_c3 + x_w193_c4 + x_w193_c5 + x_w193_c6 + x_w193_c7 + x_w193_c8 + x_w193_c9 + x_w193_c10 + x_w193_c11 + x_w193_c12 + x_w193_c13 + x_w193_c14 + x_w193_c15 + x_w193_c16 + x_w193_c17 + x_w193_c18 + x_w193_c19 + x_w193_c20 + x_w193_c21 + x_w193_c22 + x_w193_c23 + x_w193_c24 = 10
  lat_lin_w194_c0: x_w194_c0 + y_w194_c0 >= 0.5148
  lat_lin_w194_c1: x_w194_c1 + y_w194_c1 >= 0.4469
  lat_lin_w194_c2: x_w194_c2 + y_w194_c2 >= 0.7519
  lat_lin_w194_c3: x_w194_c3 + y_w194_c3 >= 0.0207
  lat_lin_w194_c4: x_w194_c4 + y_w194_c4 >= 0.7625
  lat_lin_w194_c5: x_w194_c5 + y_w194_c5 >= 0.4645
  lat_lin_w194_c6: x_w194_c6 + y_w194_c6 >= 0.4895
  lat_lin_w194_c7: x_w194_c7 + y_w194_c7 >= 0.8046
  lat_lin_w194_c8: x_w194_c8 + y_w194_c8 >= 0.8225
  lat_lin_w194_c9: x_w194_c9 + y_w194_c9 >= 0.1402
  lat_lin_w194_c10: x_w194_c10 + y_w194_c10 >= 0.1079
  lat_lin_w194_c11: x_w194_c11 + y_w194_c11 >= 0.5457
  lat_lin_w194_c12: x_w194_c12 + y_w194_c12 >= 0.5476
  lat_lin_w194_c13: x_w194_c13 + y_w194_c13 >= 0.4530
  lat_lin_w194_c14: x_w194_c14 + y_w194_c14 >= 0.6132
  lat_lin_w194_c15: x_w194_c15 + y_w194_c15 >= 0.3730
  lat_lin_w194_c16: x_w194_c16 + y_w194_c16 >= 0.7279
  lat_lin_w194_c17: x_w194_c17 + y_w194_c17 >= 0.0366
  lat_lin_w194_c18: x_w194_c18 + y_w194_c18 >= 0.1524
  lat_lin_w194_c19: x_w194_c19 + y_w194_c19 >= 0.4433
  lat_lin_w194_c20: x_w194_c20 + y_w194_c20 >= 0.5727
  lat_lin_w194_c21: x_w194_c21 + y_w194_c21 >= 0.0871
  lat_lin_w194_c22: x_w194_c22 + y_w194_c22 >= 0.3351
  lat_lin_w194_c23: x_w194_c23 + y_w194_c23 >= 0.1278
  lat_lin_w194_c24: x_w194_c24 + y_w194_c24 >= 0.6586
  demand_w194: x_w194_c0 + x_w194_c1 + x_w194_c2 + x_w194_c3 + x_w194_c4 + x_w194_c5 + x_w194_c6 + x_w194_c7 + x_w194_c8 + x_w194_c9 + x_w194_c10 + x_w194_c11 + x_w194_c12 + x_w194_c13 + x_w194_c14 + x_w194_c15 + x_w194_c16 + x_w194_c17 + x_w194_c18 + x_w194_c19 + x_w194_c20 + x_w194_c21 + x_w194_c22 + x_w194_c23 + x_w194_c24 = 11
  lat_lin_w195_c0: x_w195_c0 + y_w195_c0 >= 0.2009
  lat_lin_w195_c1: x_w195_c1 + y_w195_c1 >= 0.2369
  lat_lin_w195_c2: x_w195_c2 + y_w195_c2 >= 0.0540
  lat_lin_w195_c3: x_w195_c3 + y_w195_c3 >= 0.0620
  lat_lin_w195_c4: x_w195_c4 + y_w195_c4 >= 0.1640
  lat_lin_w195_c5: x_w195_c5 + y_w195_c5 >= 0.0281
  lat_lin_w195_c6: x_w195_c6 + y_w195_c6 >= 0.1201
  lat_lin_w195_c7: x_w195_c7 + y_w195_c7 >= 0.1353
  lat_lin_w195_c8: x_w195_c8 + y_w195_c8 >= 0.1269
  lat_lin_w195_c9: x_w195_c9 + y_w195_c9 >= 0.0384
  lat_lin_w195_c10: x_w195_c10 + y_w195_c10 >= 0.2126
  lat_lin_w195_c11: x_w195_c11 + y_w195_c11 >= 0.0201
  lat_lin_w195_c12: x_w195_c12 + y_w195_c12 >= 0.1004
  lat_lin_w195_c13: x_w195_c13 + y_w195_c13 >= 0.0074
  lat_lin_w195_c14: x_w195_c14 + y_w195_c14 >= 0.2119
  lat_lin_w195_c15: x_w195_c15 + y_w195_c15 >= 0.2427
  lat_lin_w195_c16: x_w195_c16 + y_w195_c16 >= 0.0945
  lat_lin_w195_c17: x_w195_c17 + y_w195_c17 >= 0.0621
  lat_lin_w195_c18: x_w195_c18 + y_w195_c18 >= 0.1835
  lat_lin_w195_c19: x_w195_c19 + y_w195_c19 >= 0.1640
  lat_lin_w195_c20: x_w195_c20 + y_w195_c20 >= 0.0832
  lat_lin_w195_c21: x_w195_c21 + y_w195_c21 >= 0.0932
  lat_lin_w195_c22: x_w195_c22 + y_w195_c22 >= 0.0680
  lat_lin_w195_c23: x_w195_c23 + y_w195_c23 >= 0.0458
  lat_lin_w195_c24: x_w195_c24 + y_w195_c24 >= 0.2439
  demand_w195: x_w195_c0 + x_w195_c1 + x_w195_c2 + x_w195_c3 + x_w195_c4 + x_w195_c5 + x_w195_c6 + x_w195_c7 + x_w195_c8 + x_w195_c9 + x_w195_c10 + x_w195_c11 + x_w195_c12 + x_w195_c13 + x_w195_c14 + x_w195_c15 + x_w195_c16 + x_w195_c17 + x_w195_c18 + x_w195_c19 + x_w195_c20 + x_w195_c21 + x_w195_c22 + x_w195_c23 + x_w195_c24 = 3
  lat_lin_w196_c0: x_w196_c0 + y_w196_c0 >= 0.6710
  lat_lin_w196_c1: x_w196_c1 + y_w196_c1 >= 0.4502
  lat_lin_w196_c2: x_w196_c2 + y_w196_c2 >= 0.4274
  lat_lin_w196_c3: x_w196_c3 + y_w196_c3 >= 0.1104
  lat_lin_w196_c4: x_w196_c4 + y_w196_c4 >= 0.8505
  lat_lin_w196_c5: x_w196_c5 + y_w196_c5 >= 0.6207
  lat_lin_w196_c6: x_w196_c6 + y_w196_c6 >= 0.3507
  lat_lin_w196_c7: x_w196_c7 + y_w196_c7 >= 0.8159
  lat_lin_w196_c8: x_w196_c8 + y_w196_c8 >= 0.7180
  lat_lin_w196_c9: x_w196_c9 + y_w196_c9 >= 0.7554
  lat_lin_w196_c10: x_w196_c10 + y_w196_c10 >= 0.6766
  lat_lin_w196_c11: x_w196_c11 + y_w196_c11 >= 0.6253
  lat_lin_w196_c12: x_w196_c12 + y_w196_c12 >= 0.0026
  lat_lin_w196_c13: x_w196_c13 + y_w196_c13 >= 0.9386
  lat_lin_w196_c14: x_w196_c14 + y_w196_c14 >= 0.5240
  lat_lin_w196_c15: x_w196_c15 + y_w196_c15 >= 0.9400
  lat_lin_w196_c16: x_w196_c16 + y_w196_c16 >= 0.6654
  lat_lin_w196_c17: x_w196_c17 + y_w196_c17 >= 0.6650
  lat_lin_w196_c18: x_w196_c18 + y_w196_c18 >= 0.2102
  lat_lin_w196_c19: x_w196_c19 + y_w196_c19 >= 0.3660
  lat_lin_w196_c20: x_w196_c20 + y_w196_c20 >= 0.7089
  lat_lin_w196_c21: x_w196_c21 + y_w196_c21 >= 0.7828
  lat_lin_w196_c22: x_w196_c22 + y_w196_c22 >= 0.2839
  lat_lin_w196_c23: x_w196_c23 + y_w196_c23 >= 0.0649
  lat_lin_w196_c24: x_w196_c24 + y_w196_c24 >= 0.7759
  demand_w196: x_w196_c0 + x_w196_c1 + x_w196_c2 + x_w196_c3 + x_w196_c4 + x_w196_c5 + x_w196_c6 + x_w196_c7 + x_w196_c8 + x_w196_c9 + x_w196_c10 + x_w196_c11 + x_w196_c12 + x_w196_c13 + x_w196_c14 + x_w196_c15 + x_w196_c16 + x_w196_c17 + x_w196_c18 + x_w196_c19 + x_w196_c20 + x_w196_c21 + x_w196_c22 + x_w196_c23 + x_w196_c24 = 14
  lat_lin_w197_c0: x_w197_c0 + y_w197_c0 >= 0.3395
  lat_lin_w197_c1: x_w197_c1 + y_w197_c1 >= 0.1943
  lat_lin_w197_c2: x_w197_c2 + y_w197_c2 >= 0.2280
  lat_lin_w197_c3: x_w197_c3 + y_w197_c3 >= 0.2936
  lat_lin_w197_c4: x_w197_c4 + y_w197_c4 >= 0.1861
  lat_lin_w197_c5: x_w197_c5 + y_w197_c5 >= 0.1432
  lat_lin_w197_c6: x_w197_c6 + y_w197_c6 >= 0.0589
  lat_lin_w197_c7: x_w197_c7 + y_w197_c7 >= 0.3867
  lat_lin_w197_c8: x_w197_c8 + y_w197_c8 >= 0.2962
  lat_lin_w197_c9: x_w197_c9 + y_w197_c9 >= 0.2886
  lat_lin_w197_c10: x_w197_c10 + y_w197_c10 >= 0.1635
  lat_lin_w197_c11: x_w197_c11 + y_w197_c11 >= 0.4079
  lat_lin_w197_c12: x_w197_c12 + y_w197_c12 >= 0.2261
  lat_lin_w197_c13: x_w197_c13 + y_w197_c13 >= 0.2618
  lat_lin_w197_c14: x_w197_c14 + y_w197_c14 >= 0.0437
  lat_lin_w197_c15: x_w197_c15 + y_w197_c15 >= 0.3007
  lat_lin_w197_c16: x_w197_c16 + y_w197_c16 >= 0.1819
  lat_lin_w197_c17: x_w197_c17 + y_w197_c17 >= 0.1730
  lat_lin_w197_c18: x_w197_c18 + y_w197_c18 >= 0.2498
  lat_lin_w197_c19: x_w197_c19 + y_w197_c19 >= 0.3465
  lat_lin_w197_c20: x_w197_c20 + y_w197_c20 >= 0.3022
  lat_lin_w197_c21: x_w197_c21 + y_w197_c21 >= 0.0582
  lat_lin_w197_c22: x_w197_c22 + y_w197_c22 >= 0.4253
  lat_lin_w197_c23: x_w197_c23 + y_w197_c23 >= 0.0758
  lat_lin_w197_c24: x_w197_c24 + y_w197_c24 >= 0.3685
  demand_w197: x_w197_c0 + x_w197_c1 + x_w197_c2 + x_w197_c3 + x_w197_c4 + x_w197_c5 + x_w197_c6 + x_w197_c7 + x_w197_c8 + x_w197_c9 + x_w197_c10 + x_w197_c11 + x_w197_c12 + x_w197_c13 + x_w197_c14 + x_w197_c15 + x_w197_c16 + x_w197_c17 + x_w197_c18 + x_w197_c19 + x_w197_c20 + x_w197_c21 + x_w197_c22 + x_w197_c23 + x_w197_c24 = 6
  lat_lin_w198_c0: x_w198_c0 + y_w198_c0 >= 0.0960
  lat_lin_w198_c1: x_w198_c1 + y_w198_c1 >= 0.1402
  lat_lin_w198_c2: x_w198_c2 + y_w198_c2 >= 0.2419
  lat_lin_w198_c3: x_w198_c3 + y_w198_c3 >= 0.1469
  lat_lin_w198_c4: x_w198_c4 + y_w198_c4 >= 0.0847
  lat_lin_w198_c5: x_w198_c5 + y_w198_c5 >= 0.2132
  lat_lin_w198_c6: x_w198_c6 + y_w198_c6 >= 0.0031
  lat_lin_w198_c7: x_w198_c7 + y_w198_c7 >= 0.0814
  lat_lin_w198_c8: x_w198_c8 + y_w198_c8 >= 0.0943
  lat_lin_w198_c9: x_w198_c9 + y_w198_c9 >= 0.0502
  lat_lin_w198_c10: x_w198_c10 + y_w198_c10 >= 0.0018
  lat_lin_w198_c11: x_w198_c11 + y_w198_c11 >= 0.0268
  lat_lin_w198_c12: x_w198_c12 + y_w198_c12 >= 0.1909
  lat_lin_w198_c13: x_w198_c13 + y_w198_c13 >= 0.1172
  lat_lin_w198_c14: x_w198_c14 + y_w198_c14 >= 0.2315
  lat_lin_w198_c15: x_w198_c15 + y_w198_c15 >= 0.1068
  lat_lin_w198_c16: x_w198_c16 + y_w198_c16 >= 0.0690
  lat_lin_w198_c17: x_w198_c17 + y_w198_c17 >= 0.1202
  lat_lin_w198_c18: x_w198_c18 + y_w198_c18 >= 0.0865
  lat_lin_w198_c19: x_w198_c19 + y_w198_c19 >= 0.2255
  lat_lin_w198_c20: x_w198_c20 + y_w198_c20 >= 0.0993
  lat_lin_w198_c21: x_w198_c21 + y_w198_c21 >= 0.2337
  lat_lin_w198_c22: x_w198_c22 + y_w198_c22 >= 0.0740
  lat_lin_w198_c23: x_w198_c23 + y_w198_c23 >= 0.0497
  lat_lin_w198_c24: x_w198_c24 + y_w198_c24 >= 0.2151
  demand_w198: x_w198_c0 + x_w198_c1 + x_w198_c2 + x_w198_c3 + x_w198_c4 + x_w198_c5 + x_w198_c6 + x_w198_c7 + x_w198_c8 + x_w198_c9 + x_w198_c10 + x_w198_c11 + x_w198_c12 + x_w198_c13 + x_w198_c14 + x_w198_c15 + x_w198_c16 + x_w198_c17 + x_w198_c18 + x_w198_c19 + x_w198_c20 + x_w198_c21 + x_w198_c22 + x_w198_c23 + x_w198_c24 = 3
  lat_lin_w199_c0: x_w199_c0 + y_w199_c0 >= 0.2900
  lat_lin_w199_c1: x_w199_c1 + y_w199_c1 >= 0.6112
  lat_lin_w199_c2: x_w199_c2 + y_w199_c2 >= 0.0297
  lat_lin_w199_c3: x_w199_c3 + y_w199_c3 >= 0.6158
  lat_lin_w199_c4: x_w199_c4 + y_w199_c4 >= 1.0658
  lat_lin_w199_c5: x_w199_c5 + y_w199_c5 >= 0.1031
  lat_lin_w199_c6: x_w199_c6 + y_w199_c6 >= 0.6994
  lat_lin_w199_c7: x_w199_c7 + y_w199_c7 >= 0.2315
  lat_lin_w199_c8: x_w199_c8 + y_w199_c8 >= 0.1346
  lat_lin_w199_c9: x_w199_c9 + y_w199_c9 >= 0.5704
  lat_lin_w199_c10: x_w199_c10 + y_w199_c10 >= 0.6152
  lat_lin_w199_c11: x_w199_c11 + y_w199_c11 >= 0.6330
  lat_lin_w199_c12: x_w199_c12 + y_w199_c12 >= 0.1326
  lat_lin_w199_c13: x_w199_c13 + y_w199_c13 >= 0.2052
  lat_lin_w199_c14: x_w199_c14 + y_w199_c14 >= 0.5565
  lat_lin_w199_c15: x_w199_c15 + y_w199_c15 >= 0.1083
  lat_lin_w199_c16: x_w199_c16 + y_w199_c16 >= 1.0633
  lat_lin_w199_c17: x_w199_c17 + y_w199_c17 >= 0.5160
  lat_lin_w199_c18: x_w199_c18 + y_w199_c18 >= 0.2036
  lat_lin_w199_c19: x_w199_c19 + y_w199_c19 >= 0.9838
  lat_lin_w199_c20: x_w199_c20 + y_w199_c20 >= 0.8121
  lat_lin_w199_c21: x_w199_c21 + y_w199_c21 >= 0.6203
  lat_lin_w199_c22: x_w199_c22 + y_w199_c22 >= 0.7805
  lat_lin_w199_c23: x_w199_c23 + y_w199_c23 >= 0.0489
  lat_lin_w199_c24: x_w199_c24 + y_w199_c24 >= 0.3692
  demand_w199: x_w199_c0 + x_w199_c1 + x_w199_c2 + x_w199_c3 + x_w199_c4 + x_w199_c5 + x_w199_c6 + x_w199_c7 + x_w199_c8 + x_w199_c9 + x_w199_c10 + x_w199_c11 + x_w199_c12 + x_w199_c13 + x_w199_c14 + x_w199_c15 + x_w199_c16 + x_w199_c17 + x_w199_c18 + x_w199_c19 + x_w199_c20 + x_w199_c21 + x_w199_c22 + x_w199_c23 + x_w199_c24 = 12
  lat_lin_w200_c0: x_w200_c0 + y_w200_c0 >= 0.4144
  lat_lin_w200_c1: x_w200_c1 + y_w200_c1 >= 0.7510
  lat_lin_w200_c2: x_w200_c2 + y_w200_c2 >= 0.2164
  lat_lin_w200_c3: x_w200_c3 + y_w200_c3 >= 0.1566
  lat_lin_w200_c4: x_w200_c4 + y_w200_c4 >= 0.1077
  lat_lin_w200_c5: x_w200_c5 + y_w200_c5 >= 0.1940
  lat_lin_w200_c6: x_w200_c6 + y_w200_c6 >= 0.7186
  lat_lin_w200_c7: x_w200_c7 + y_w200_c7 >= 0.6813
  lat_lin_w200_c8: x_w200_c8 + y_w200_c8 >= 0.5761
  lat_lin_w200_c9: x_w200_c9 + y_w200_c9 >= 0.6646
  lat_lin_w200_c10: x_w200_c10 + y_w200_c10 >= 0.2956
  lat_lin_w200_c11: x_w200_c11 + y_w200_c11 >= 0.7068
  lat_lin_w200_c12: x_w200_c12 + y_w200_c12 >= 0.2868
  lat_lin_w200_c13: x_w200_c13 + y_w200_c13 >= 0.5818
  lat_lin_w200_c14: x_w200_c14 + y_w200_c14 >= 0.3051
  lat_lin_w200_c15: x_w200_c15 + y_w200_c15 >= 0.7568
  lat_lin_w200_c16: x_w200_c16 + y_w200_c16 >= 0.6606
  lat_lin_w200_c17: x_w200_c17 + y_w200_c17 >= 0.3605
  lat_lin_w200_c18: x_w200_c18 + y_w200_c18 >= 0.1237
  lat_lin_w200_c19: x_w200_c19 + y_w200_c19 >= 0.0701
  lat_lin_w200_c20: x_w200_c20 + y_w200_c20 >= 0.7266
  lat_lin_w200_c21: x_w200_c21 + y_w200_c21 >= 0.5412
  lat_lin_w200_c22: x_w200_c22 + y_w200_c22 >= 0.0845
  lat_lin_w200_c23: x_w200_c23 + y_w200_c23 >= 0.2922
  lat_lin_w200_c24: x_w200_c24 + y_w200_c24 >= 0.7269
  demand_w200: x_w200_c0 + x_w200_c1 + x_w200_c2 + x_w200_c3 + x_w200_c4 + x_w200_c5 + x_w200_c6 + x_w200_c7 + x_w200_c8 + x_w200_c9 + x_w200_c10 + x_w200_c11 + x_w200_c12 + x_w200_c13 + x_w200_c14 + x_w200_c15 + x_w200_c16 + x_w200_c17 + x_w200_c18 + x_w200_c19 + x_w200_c20 + x_w200_c21 + x_w200_c22 + x_w200_c23 + x_w200_c24 = 11
  lat_lin_w201_c0: x_w201_c0 + y_w201_c0 >= 0.1884
  lat_lin_w201_c1: x_w201_c1 + y_w201_c1 >= 0.3215
  lat_lin_w201_c2: x_w201_c2 + y_w201_c2 >= 0.8873
  lat_lin_w201_c3: x_w201_c3 + y_w201_c3 >= 0.0707
  lat_lin_w201_c4: x_w201_c4 + y_w201_c4 >= 1.0313
  lat_lin_w201_c5: x_w201_c5 + y_w201_c5 >= 0.9174
  lat_lin_w201_c6: x_w201_c6 + y_w201_c6 >= 0.1789
  lat_lin_w201_c7: x_w201_c7 + y_w201_c7 >= 0.5397
  lat_lin_w201_c8: x_w201_c8 + y_w201_c8 >= 0.4804
  lat_lin_w201_c9: x_w201_c9 + y_w201_c9 >= 0.6685
  lat_lin_w201_c10: x_w201_c10 + y_w201_c10 >= 0.0237
  lat_lin_w201_c11: x_w201_c11 + y_w201_c11 >= 0.6354
  lat_lin_w201_c12: x_w201_c12 + y_w201_c12 >= 0.0347
  lat_lin_w201_c13: x_w201_c13 + y_w201_c13 >= 0.2757
  lat_lin_w201_c14: x_w201_c14 + y_w201_c14 >= 1.0290
  lat_lin_w201_c15: x_w201_c15 + y_w201_c15 >= 0.8701
  lat_lin_w201_c16: x_w201_c16 + y_w201_c16 >= 0.1944
  lat_lin_w201_c17: x_w201_c17 + y_w201_c17 >= 0.9868
  lat_lin_w201_c18: x_w201_c18 + y_w201_c18 >= 0.5497
  lat_lin_w201_c19: x_w201_c19 + y_w201_c19 >= 0.8520
  lat_lin_w201_c20: x_w201_c20 + y_w201_c20 >= 0.5402
  lat_lin_w201_c21: x_w201_c21 + y_w201_c21 >= 0.9547
  lat_lin_w201_c22: x_w201_c22 + y_w201_c22 >= 0.8532
  lat_lin_w201_c23: x_w201_c23 + y_w201_c23 >= 0.9011
  lat_lin_w201_c24: x_w201_c24 + y_w201_c24 >= 1.0151
  demand_w201: x_w201_c0 + x_w201_c1 + x_w201_c2 + x_w201_c3 + x_w201_c4 + x_w201_c5 + x_w201_c6 + x_w201_c7 + x_w201_c8 + x_w201_c9 + x_w201_c10 + x_w201_c11 + x_w201_c12 + x_w201_c13 + x_w201_c14 + x_w201_c15 + x_w201_c16 + x_w201_c17 + x_w201_c18 + x_w201_c19 + x_w201_c20 + x_w201_c21 + x_w201_c22 + x_w201_c23 + x_w201_c24 = 15
  lat_lin_w202_c0: x_w202_c0 + y_w202_c0 >= 0.9490
  lat_lin_w202_c1: x_w202_c1 + y_w202_c1 >= 0.6513
  lat_lin_w202_c2: x_w202_c2 + y_w202_c2 >= 0.1302
  lat_lin_w202_c3: x_w202_c3 + y_w202_c3 >= 0.7713
  lat_lin_w202_c4: x_w202_c4 + y_w202_c4 >= 0.0546
  lat_lin_w202_c5: x_w202_c5 + y_w202_c5 >= 0.8102
  lat_lin_w202_c6: x_w202_c6 + y_w202_c6 >= 0.7876
  lat_lin_w202_c7: x_w202_c7 + y_w202_c7 >= 0.5168
  lat_lin_w202_c8: x_w202_c8 + y_w202_c8 >= 0.0149
  lat_lin_w202_c9: x_w202_c9 + y_w202_c9 >= 0.3200
  lat_lin_w202_c10: x_w202_c10 + y_w202_c10 >= 0.9095
  lat_lin_w202_c11: x_w202_c11 + y_w202_c11 >= 0.7948
  lat_lin_w202_c12: x_w202_c12 + y_w202_c12 >= 0.6350
  lat_lin_w202_c13: x_w202_c13 + y_w202_c13 >= 0.6147
  lat_lin_w202_c14: x_w202_c14 + y_w202_c14 >= 0.2844
  lat_lin_w202_c15: x_w202_c15 + y_w202_c15 >= 0.1315
  lat_lin_w202_c16: x_w202_c16 + y_w202_c16 >= 0.1502
  lat_lin_w202_c17: x_w202_c17 + y_w202_c17 >= 0.2365
  lat_lin_w202_c18: x_w202_c18 + y_w202_c18 >= 0.2017
  lat_lin_w202_c19: x_w202_c19 + y_w202_c19 >= 0.6901
  lat_lin_w202_c20: x_w202_c20 + y_w202_c20 >= 0.6913
  lat_lin_w202_c21: x_w202_c21 + y_w202_c21 >= 0.0901
  lat_lin_w202_c22: x_w202_c22 + y_w202_c22 >= 0.1175
  lat_lin_w202_c23: x_w202_c23 + y_w202_c23 >= 0.2447
  lat_lin_w202_c24: x_w202_c24 + y_w202_c24 >= 0.2020
  demand_w202: x_w202_c0 + x_w202_c1 + x_w202_c2 + x_w202_c3 + x_w202_c4 + x_w202_c5 + x_w202_c6 + x_w202_c7 + x_w202_c8 + x_w202_c9 + x_w202_c10 + x_w202_c11 + x_w202_c12 + x_w202_c13 + x_w202_c14 + x_w202_c15 + x_w202_c16 + x_w202_c17 + x_w202_c18 + x_w202_c19 + x_w202_c20 + x_w202_c21 + x_w202_c22 + x_w202_c23 + x_w202_c24 = 11
  lat_lin_w203_c0: x_w203_c0 + y_w203_c0 >= 0.1963
  lat_lin_w203_c1: x_w203_c1 + y_w203_c1 >= 0.0549
  lat_lin_w203_c2: x_w203_c2 + y_w203_c2 >= 0.0718
  lat_lin_w203_c3: x_w203_c3 + y_w203_c3 >= 0.2129
  lat_lin_w203_c4: x_w203_c4 + y_w203_c4 >= 0.3330
  lat_lin_w203_c5: x_w203_c5 + y_w203_c5 >= 0.3643
  lat_lin_w203_c6: x_w203_c6 + y_w203_c6 >= 0.1626
  lat_lin_w203_c7: x_w203_c7 + y_w203_c7 >= 0.2018
  lat_lin_w203_c8: x_w203_c8 + y_w203_c8 >= 0.2024
  lat_lin_w203_c9: x_w203_c9 + y_w203_c9 >= 0.0026
  lat_lin_w203_c10: x_w203_c10 + y_w203_c10 >= 0.2506
  lat_lin_w203_c11: x_w203_c11 + y_w203_c11 >= 0.1176
  lat_lin_w203_c12: x_w203_c12 + y_w203_c12 >= 0.4031
  lat_lin_w203_c13: x_w203_c13 + y_w203_c13 >= 0.1732
  lat_lin_w203_c14: x_w203_c14 + y_w203_c14 >= 0.1258
  lat_lin_w203_c15: x_w203_c15 + y_w203_c15 >= 0.2928
  lat_lin_w203_c16: x_w203_c16 + y_w203_c16 >= 0.1643
  lat_lin_w203_c17: x_w203_c17 + y_w203_c17 >= 0.3522
  lat_lin_w203_c18: x_w203_c18 + y_w203_c18 >= 0.4188
  lat_lin_w203_c19: x_w203_c19 + y_w203_c19 >= 0.1444
  lat_lin_w203_c20: x_w203_c20 + y_w203_c20 >= 0.0806
  lat_lin_w203_c21: x_w203_c21 + y_w203_c21 >= 0.3975
  lat_lin_w203_c22: x_w203_c22 + y_w203_c22 >= 0.0469
  lat_lin_w203_c23: x_w203_c23 + y_w203_c23 >= 0.1437
  lat_lin_w203_c24: x_w203_c24 + y_w203_c24 >= 0.0861
  demand_w203: x_w203_c0 + x_w203_c1 + x_w203_c2 + x_w203_c3 + x_w203_c4 + x_w203_c5 + x_w203_c6 + x_w203_c7 + x_w203_c8 + x_w203_c9 + x_w203_c10 + x_w203_c11 + x_w203_c12 + x_w203_c13 + x_w203_c14 + x_w203_c15 + x_w203_c16 + x_w203_c17 + x_w203_c18 + x_w203_c19 + x_w203_c20 + x_w203_c21 + x_w203_c22 + x_w203_c23 + x_w203_c24 = 5
  lat_lin_w204_c0: x_w204_c0 + y_w204_c0 >= 0.0880
  lat_lin_w204_c1: x_w204_c1 + y_w204_c1 >= 0.1913
  lat_lin_w204_c2: x_w204_c2 + y_w204_c2 >= 0.2523
  lat_lin_w204_c3: x_w204_c3 + y_w204_c3 >= 0.1183
  lat_lin_w204_c4: x_w204_c4 + y_w204_c4 >= 0.0610
  lat_lin_w204_c5: x_w204_c5 + y_w204_c5 >= 0.2282
  lat_lin_w204_c6: x_w204_c6 + y_w204_c6 >= 0.2463
  lat_lin_w204_c7: x_w204_c7 + y_w204_c7 >= 0.3777
  lat_lin_w204_c8: x_w204_c8 + y_w204_c8 >= 0.1112
  lat_lin_w204_c9: x_w204_c9 + y_w204_c9 >= 0.0161
  lat_lin_w204_c10: x_w204_c10 + y_w204_c10 >= 0.2456
  lat_lin_w204_c11: x_w204_c11 + y_w204_c11 >= 0.1000
  lat_lin_w204_c12: x_w204_c12 + y_w204_c12 >= 0.1439
  lat_lin_w204_c13: x_w204_c13 + y_w204_c13 >= 0.1649
  lat_lin_w204_c14: x_w204_c14 + y_w204_c14 >= 0.2209
  lat_lin_w204_c15: x_w204_c15 + y_w204_c15 >= 0.1983
  lat_lin_w204_c16: x_w204_c16 + y_w204_c16 >= 0.2346
  lat_lin_w204_c17: x_w204_c17 + y_w204_c17 >= 0.3897
  lat_lin_w204_c18: x_w204_c18 + y_w204_c18 >= 0.1114
  lat_lin_w204_c19: x_w204_c19 + y_w204_c19 >= 0.1920
  lat_lin_w204_c20: x_w204_c20 + y_w204_c20 >= 0.2986
  lat_lin_w204_c21: x_w204_c21 + y_w204_c21 >= 0.2802
  lat_lin_w204_c22: x_w204_c22 + y_w204_c22 >= 0.4073
  lat_lin_w204_c23: x_w204_c23 + y_w204_c23 >= 0.0566
  lat_lin_w204_c24: x_w204_c24 + y_w204_c24 >= 0.2655
  demand_w204: x_w204_c0 + x_w204_c1 + x_w204_c2 + x_w204_c3 + x_w204_c4 + x_w204_c5 + x_w204_c6 + x_w204_c7 + x_w204_c8 + x_w204_c9 + x_w204_c10 + x_w204_c11 + x_w204_c12 + x_w204_c13 + x_w204_c14 + x_w204_c15 + x_w204_c16 + x_w204_c17 + x_w204_c18 + x_w204_c19 + x_w204_c20 + x_w204_c21 + x_w204_c22 + x_w204_c23 + x_w204_c24 = 5
  lat_lin_w205_c0: x_w205_c0 + y_w205_c0 >= 0.6531
  lat_lin_w205_c1: x_w205_c1 + y_w205_c1 >= 0.5404
  lat_lin_w205_c2: x_w205_c2 + y_w205_c2 >= 0.4435
  lat_lin_w205_c3: x_w205_c3 + y_w205_c3 >= 0.1880
  lat_lin_w205_c4: x_w205_c4 + y_w205_c4 >= 0.5649
  lat_lin_w205_c5: x_w205_c5 + y_w205_c5 >= 0.2660
  lat_lin_w205_c6: x_w205_c6 + y_w205_c6 >= 0.5133
  lat_lin_w205_c7: x_w205_c7 + y_w205_c7 >= 0.3509
  lat_lin_w205_c8: x_w205_c8 + y_w205_c8 >= 0.1566
  lat_lin_w205_c9: x_w205_c9 + y_w205_c9 >= 0.6556
  lat_lin_w205_c10: x_w205_c10 + y_w205_c10 >= 0.5803
  lat_lin_w205_c11: x_w205_c11 + y_w205_c11 >= 0.1920
  lat_lin_w205_c12: x_w205_c12 + y_w205_c12 >= 0.2967
  lat_lin_w205_c13: x_w205_c13 + y_w205_c13 >= 0.2771
  lat_lin_w205_c14: x_w205_c14 + y_w205_c14 >= 0.5138
  lat_lin_w205_c15: x_w205_c15 + y_w205_c15 >= 0.3644
  lat_lin_w205_c16: x_w205_c16 + y_w205_c16 >= 0.1590
  lat_lin_w205_c17: x_w205_c17 + y_w205_c17 >= 0.5770
  lat_lin_w205_c18: x_w205_c18 + y_w205_c18 >= 0.4232
  lat_lin_w205_c19: x_w205_c19 + y_w205_c19 >= 0.4964
  lat_lin_w205_c20: x_w205_c20 + y_w205_c20 >= 0.3251
  lat_lin_w205_c21: x_w205_c21 + y_w205_c21 >= 0.4302
  lat_lin_w205_c22: x_w205_c22 + y_w205_c22 >= 0.2770
  lat_lin_w205_c23: x_w205_c23 + y_w205_c23 >= 0.5691
  lat_lin_w205_c24: x_w205_c24 + y_w205_c24 >= 0.1863
  demand_w205: x_w205_c0 + x_w205_c1 + x_w205_c2 + x_w205_c3 + x_w205_c4 + x_w205_c5 + x_w205_c6 + x_w205_c7 + x_w205_c8 + x_w205_c9 + x_w205_c10 + x_w205_c11 + x_w205_c12 + x_w205_c13 + x_w205_c14 + x_w205_c15 + x_w205_c16 + x_w205_c17 + x_w205_c18 + x_w205_c19 + x_w205_c20 + x_w205_c21 + x_w205_c22 + x_w205_c23 + x_w205_c24 = 10
  lat_lin_w206_c0: x_w206_c0 + y_w206_c0 >= 0.4450
  lat_lin_w206_c1: x_w206_c1 + y_w206_c1 >= 0.9735
  lat_lin_w206_c2: x_w206_c2 + y_w206_c2 >= 1.0146
  lat_lin_w206_c3: x_w206_c3 + y_w206_c3 >= 0.0701
  lat_lin_w206_c4: x_w206_c4 + y_w206_c4 >= 0.6616
  lat_lin_w206_c5: x_w206_c5 + y_w206_c5 >= 0.1301
  lat_lin_w206_c6: x_w206_c6 + y_w206_c6 >= 0.2745
  lat_lin_w206_c7: x_w206_c7 + y_w206_c7 >= 0.5974
  lat_lin_w206_c8: x_w206_c8 + y_w206_c8 >= 0.1527
  lat_lin_w206_c9: x_w206_c9 + y_w206_c9 >= 0.3581
  lat_lin_w206_c10: x_w206_c10 + y_w206_c10 >= 0.5153
  lat_lin_w206_c11: x_w206_c11 + y_w206_c11 >= 0.6456
  lat_lin_w206_c12: x_w206_c12 + y_w206_c12 >= 0.7686
  lat_lin_w206_c13: x_w206_c13 + y_w206_c13 >= 0.8116
  lat_lin_w206_c14: x_w206_c14 + y_w206_c14 >= 0.6541
  lat_lin_w206_c15: x_w206_c15 + y_w206_c15 >= 1.0586
  lat_lin_w206_c16: x_w206_c16 + y_w206_c16 >= 0.2258
  lat_lin_w206_c17: x_w206_c17 + y_w206_c17 >= 0.0749
  lat_lin_w206_c18: x_w206_c18 + y_w206_c18 >= 0.6075
  lat_lin_w206_c19: x_w206_c19 + y_w206_c19 >= 0.3827
  lat_lin_w206_c20: x_w206_c20 + y_w206_c20 >= 0.4439
  lat_lin_w206_c21: x_w206_c21 + y_w206_c21 >= 0.7991
  lat_lin_w206_c22: x_w206_c22 + y_w206_c22 >= 1.0583
  lat_lin_w206_c23: x_w206_c23 + y_w206_c23 >= 0.3640
  lat_lin_w206_c24: x_w206_c24 + y_w206_c24 >= 0.9125
  demand_w206: x_w206_c0 + x_w206_c1 + x_w206_c2 + x_w206_c3 + x_w206_c4 + x_w206_c5 + x_w206_c6 + x_w206_c7 + x_w206_c8 + x_w206_c9 + x_w206_c10 + x_w206_c11 + x_w206_c12 + x_w206_c13 + x_w206_c14 + x_w206_c15 + x_w206_c16 + x_w206_c17 + x_w206_c18 + x_w206_c19 + x_w206_c20 + x_w206_c21 + x_w206_c22 + x_w206_c23 + x_w206_c24 = 14
  lat_lin_w207_c0: x_w207_c0 + y_w207_c0 >= 0.5157
  lat_lin_w207_c1: x_w207_c1 + y_w207_c1 >= 0.5614
  lat_lin_w207_c2: x_w207_c2 + y_w207_c2 >= 0.5968
  lat_lin_w207_c3: x_w207_c3 + y_w207_c3 >= 0.7051
  lat_lin_w207_c4: x_w207_c4 + y_w207_c4 >= 0.2034
  lat_lin_w207_c5: x_w207_c5 + y_w207_c5 >= 0.3590
  lat_lin_w207_c6: x_w207_c6 + y_w207_c6 >= 0.3304
  lat_lin_w207_c7: x_w207_c7 + y_w207_c7 >= 0.6804
  lat_lin_w207_c8: x_w207_c8 + y_w207_c8 >= 0.9711
  lat_lin_w207_c9: x_w207_c9 + y_w207_c9 >= 0.0286
  lat_lin_w207_c10: x_w207_c10 + y_w207_c10 >= 0.4591
  lat_lin_w207_c11: x_w207_c11 + y_w207_c11 >= 0.2204
  lat_lin_w207_c12: x_w207_c12 + y_w207_c12 >= 1.0870
  lat_lin_w207_c13: x_w207_c13 + y_w207_c13 >= 0.6043
  lat_lin_w207_c14: x_w207_c14 + y_w207_c14 >= 0.2152
  lat_lin_w207_c15: x_w207_c15 + y_w207_c15 >= 0.4701
  lat_lin_w207_c16: x_w207_c16 + y_w207_c16 >= 1.1364
  lat_lin_w207_c17: x_w207_c17 + y_w207_c17 >= 0.4151
  lat_lin_w207_c18: x_w207_c18 + y_w207_c18 >= 0.7343
  lat_lin_w207_c19: x_w207_c19 + y_w207_c19 >= 0.1380
  lat_lin_w207_c20: x_w207_c20 + y_w207_c20 >= 0.6657
  lat_lin_w207_c21: x_w207_c21 + y_w207_c21 >= 0.4035
  lat_lin_w207_c22: x_w207_c22 + y_w207_c22 >= 0.6483
  lat_lin_w207_c23: x_w207_c23 + y_w207_c23 >= 0.4459
  lat_lin_w207_c24: x_w207_c24 + y_w207_c24 >= 0.4047
  demand_w207: x_w207_c0 + x_w207_c1 + x_w207_c2 + x_w207_c3 + x_w207_c4 + x_w207_c5 + x_w207_c6 + x_w207_c7 + x_w207_c8 + x_w207_c9 + x_w207_c10 + x_w207_c11 + x_w207_c12 + x_w207_c13 + x_w207_c14 + x_w207_c15 + x_w207_c16 + x_w207_c17 + x_w207_c18 + x_w207_c19 + x_w207_c20 + x_w207_c21 + x_w207_c22 + x_w207_c23 + x_w207_c24 = 13
  lat_lin_w208_c0: x_w208_c0 + y_w208_c0 >= 0.2413
  lat_lin_w208_c1: x_w208_c1 + y_w208_c1 >= 0.2178
  lat_lin_w208_c2: x_w208_c2 + y_w208_c2 >= 0.1952
  lat_lin_w208_c3: x_w208_c3 + y_w208_c3 >= 0.3541
  lat_lin_w208_c4: x_w208_c4 + y_w208_c4 >= 0.1458
  lat_lin_w208_c5: x_w208_c5 + y_w208_c5 >= 0.2192
  lat_lin_w208_c6: x_w208_c6 + y_w208_c6 >= 0.1615
  lat_lin_w208_c7: x_w208_c7 + y_w208_c7 >= 0.4346
  lat_lin_w208_c8: x_w208_c8 + y_w208_c8 >= 0.0463
  lat_lin_w208_c9: x_w208_c9 + y_w208_c9 >= 0.2926
  lat_lin_w208_c10: x_w208_c10 + y_w208_c10 >= 0.4397
  lat_lin_w208_c11: x_w208_c11 + y_w208_c11 >= 0.0919
  lat_lin_w208_c12: x_w208_c12 + y_w208_c12 >= 0.0960
  lat_lin_w208_c13: x_w208_c13 + y_w208_c13 >= 0.1988
  lat_lin_w208_c14: x_w208_c14 + y_w208_c14 >= 0.2620
  lat_lin_w208_c15: x_w208_c15 + y_w208_c15 >= 0.3706
  lat_lin_w208_c16: x_w208_c16 + y_w208_c16 >= 0.4393
  lat_lin_w208_c17: x_w208_c17 + y_w208_c17 >= 0.4068
  lat_lin_w208_c18: x_w208_c18 + y_w208_c18 >= 0.1167
  lat_lin_w208_c19: x_w208_c19 + y_w208_c19 >= 0.0919
  lat_lin_w208_c20: x_w208_c20 + y_w208_c20 >= 0.2670
  lat_lin_w208_c21: x_w208_c21 + y_w208_c21 >= 0.2774
  lat_lin_w208_c22: x_w208_c22 + y_w208_c22 >= 0.1408
  lat_lin_w208_c23: x_w208_c23 + y_w208_c23 >= 0.2353
  lat_lin_w208_c24: x_w208_c24 + y_w208_c24 >= 0.2575
  demand_w208: x_w208_c0 + x_w208_c1 + x_w208_c2 + x_w208_c3 + x_w208_c4 + x_w208_c5 + x_w208_c6 + x_w208_c7 + x_w208_c8 + x_w208_c9 + x_w208_c10 + x_w208_c11 + x_w208_c12 + x_w208_c13 + x_w208_c14 + x_w208_c15 + x_w208_c16 + x_w208_c17 + x_w208_c18 + x_w208_c19 + x_w208_c20 + x_w208_c21 + x_w208_c22 + x_w208_c23 + x_w208_c24 = 6
  lat_lin_w209_c0: x_w209_c0 + y_w209_c0 >= 0.3016
  lat_lin_w209_c1: x_w209_c1 + y_w209_c1 >= 0.0096
  lat_lin_w209_c2: x_w209_c2 + y_w209_c2 >= 0.2287
  lat_lin_w209_c3: x_w209_c3 + y_w209_c3 >= 0.2740
  lat_lin_w209_c4: x_w209_c4 + y_w209_c4 >= 0.2922
  lat_lin_w209_c5: x_w209_c5 + y_w209_c5 >= 0.2221
  lat_lin_w209_c6: x_w209_c6 + y_w209_c6 >= 0.1744
  lat_lin_w209_c7: x_w209_c7 + y_w209_c7 >= 0.3148
  lat_lin_w209_c8: x_w209_c8 + y_w209_c8 >= 0.1948
  lat_lin_w209_c9: x_w209_c9 + y_w209_c9 >= 0.2731
  lat_lin_w209_c10: x_w209_c10 + y_w209_c10 >= 0.1753
  lat_lin_w209_c11: x_w209_c11 + y_w209_c11 >= 0.3061
  lat_lin_w209_c12: x_w209_c12 + y_w209_c12 >= 0.2366
  lat_lin_w209_c13: x_w209_c13 + y_w209_c13 >= 0.3431
  lat_lin_w209_c14: x_w209_c14 + y_w209_c14 >= 0.2163
  lat_lin_w209_c15: x_w209_c15 + y_w209_c15 >= 0.0334
  lat_lin_w209_c16: x_w209_c16 + y_w209_c16 >= 0.1886
  lat_lin_w209_c17: x_w209_c17 + y_w209_c17 >= 0.1474
  lat_lin_w209_c18: x_w209_c18 + y_w209_c18 >= 0.0912
  lat_lin_w209_c19: x_w209_c19 + y_w209_c19 >= 0.0359
  lat_lin_w209_c20: x_w209_c20 + y_w209_c20 >= 0.2176
  lat_lin_w209_c21: x_w209_c21 + y_w209_c21 >= 0.1062
  lat_lin_w209_c22: x_w209_c22 + y_w209_c22 >= 0.1707
  lat_lin_w209_c23: x_w209_c23 + y_w209_c23 >= 0.2532
  lat_lin_w209_c24: x_w209_c24 + y_w209_c24 >= 0.1931
  demand_w209: x_w209_c0 + x_w209_c1 + x_w209_c2 + x_w209_c3 + x_w209_c4 + x_w209_c5 + x_w209_c6 + x_w209_c7 + x_w209_c8 + x_w209_c9 + x_w209_c10 + x_w209_c11 + x_w209_c12 + x_w209_c13 + x_w209_c14 + x_w209_c15 + x_w209_c16 + x_w209_c17 + x_w209_c18 + x_w209_c19 + x_w209_c20 + x_w209_c21 + x_w209_c22 + x_w209_c23 + x_w209_c24 = 5
  lat_lin_w210_c0: x_w210_c0 + y_w210_c0 >= 0.2802
  lat_lin_w210_c1: x_w210_c1 + y_w210_c1 >= 0.1802
  lat_lin_w210_c2: x_w210_c2 + y_w210_c2 >= 0.0432
  lat_lin_w210_c3: x_w210_c3 + y_w210_c3 >= 0.1886
  lat_lin_w210_c4: x_w210_c4 + y_w210_c4 >= 0.0140
  lat_lin_w210_c5: x_w210_c5 + y_w210_c5 >= 0.1603
  lat_lin_w210_c6: x_w210_c6 + y_w210_c6 >= 0.0302
  lat_lin_w210_c7: x_w210_c7 + y_w210_c7 >= 0.1000
  lat_lin_w210_c8: x_w210_c8 + y_w210_c8 >= 0.1595
  lat_lin_w210_c9: x_w210_c9 + y_w210_c9 >= 0.1056
  lat_lin_w210_c10: x_w210_c10 + y_w210_c10 >= 0.3034
  lat_lin_w210_c11: x_w210_c11 + y_w210_c11 >= 0.1988
  lat_lin_w210_c12: x_w210_c12 + y_w210_c12 >= 0.2501
  lat_lin_w210_c13: x_w210_c13 + y_w210_c13 >= 0.0167
  lat_lin_w210_c14: x_w210_c14 + y_w210_c14 >= 0.0819
  lat_lin_w210_c15: x_w210_c15 + y_w210_c15 >= 0.2243
  lat_lin_w210_c16: x_w210_c16 + y_w210_c16 >= 0.2080
  lat_lin_w210_c17: x_w210_c17 + y_w210_c17 >= 0.3379
  lat_lin_w210_c18: x_w210_c18 + y_w210_c18 >= 0.1489
  lat_lin_w210_c19: x_w210_c19 + y_w210_c19 >= 0.0932
  lat_lin_w210_c20: x_w210_c20 + y_w210_c20 >= 0.2017
  lat_lin_w210_c21: x_w210_c21 + y_w210_c21 >= 0.0247
  lat_lin_w210_c22: x_w210_c22 + y_w210_c22 >= 0.3451
  lat_lin_w210_c23: x_w210_c23 + y_w210_c23 >= 0.1399
  lat_lin_w210_c24: x_w210_c24 + y_w210_c24 >= 0.1634
  demand_w210: x_w210_c0 + x_w210_c1 + x_w210_c2 + x_w210_c3 + x_w210_c4 + x_w210_c5 + x_w210_c6 + x_w210_c7 + x_w210_c8 + x_w210_c9 + x_w210_c10 + x_w210_c11 + x_w210_c12 + x_w210_c13 + x_w210_c14 + x_w210_c15 + x_w210_c16 + x_w210_c17 + x_w210_c18 + x_w210_c19 + x_w210_c20 + x_w210_c21 + x_w210_c22 + x_w210_c23 + x_w210_c24 = 4
  lat_lin_w211_c0: x_w211_c0 + y_w211_c0 >= 0.0069
  lat_lin_w211_c1: x_w211_c1 + y_w211_c1 >= 0.5114
  lat_lin_w211_c2: x_w211_c2 + y_w211_c2 >= 0.2690
  lat_lin_w211_c3: x_w211_c3 + y_w211_c3 >= 0.0207
  lat_lin_w211_c4: x_w211_c4 + y_w211_c4 >= 0.4179
  lat_lin_w211_c5: x_w211_c5 + y_w211_c5 >= 0.5050
  lat_lin_w211_c6: x_w211_c6 + y_w211_c6 >= 0.5633
  lat_lin_w211_c7: x_w211_c7 + y_w211_c7 >= 0.4929
  lat_lin_w211_c8: x_w211_c8 + y_w211_c8 >= 0.3520
  lat_lin_w211_c9: x_w211_c9 + y_w211_c9 >= 0.2857
  lat_lin_w211_c10: x_w211_c10 + y_w211_c10 >= 0.1567
  lat_lin_w211_c11: x_w211_c11 + y_w211_c11 >= 0.1276
  lat_lin_w211_c12: x_w211_c12 + y_w211_c12 >= 0.2818
  lat_lin_w211_c13: x_w211_c13 + y_w211_c13 >= 0.0111
  lat_lin_w211_c14: x_w211_c14 + y_w211_c14 >= 0.5636
  lat_lin_w211_c15: x_w211_c15 + y_w211_c15 >= 0.5051
  lat_lin_w211_c16: x_w211_c16 + y_w211_c16 >= 0.4708
  lat_lin_w211_c17: x_w211_c17 + y_w211_c17 >= 0.1198
  lat_lin_w211_c18: x_w211_c18 + y_w211_c18 >= 0.5627
  lat_lin_w211_c19: x_w211_c19 + y_w211_c19 >= 0.3705
  lat_lin_w211_c20: x_w211_c20 + y_w211_c20 >= 0.5590
  lat_lin_w211_c21: x_w211_c21 + y_w211_c21 >= 0.2178
  lat_lin_w211_c22: x_w211_c22 + y_w211_c22 >= 0.1369
  lat_lin_w211_c23: x_w211_c23 + y_w211_c23 >= 0.4402
  lat_lin_w211_c24: x_w211_c24 + y_w211_c24 >= 0.0516
  demand_w211: x_w211_c0 + x_w211_c1 + x_w211_c2 + x_w211_c3 + x_w211_c4 + x_w211_c5 + x_w211_c6 + x_w211_c7 + x_w211_c8 + x_w211_c9 + x_w211_c10 + x_w211_c11 + x_w211_c12 + x_w211_c13 + x_w211_c14 + x_w211_c15 + x_w211_c16 + x_w211_c17 + x_w211_c18 + x_w211_c19 + x_w211_c20 + x_w211_c21 + x_w211_c22 + x_w211_c23 + x_w211_c24 = 8
  lat_lin_w212_c0: x_w212_c0 + y_w212_c0 >= 0.2095
  lat_lin_w212_c1: x_w212_c1 + y_w212_c1 >= 0.0397
  lat_lin_w212_c2: x_w212_c2 + y_w212_c2 >= 0.1812
  lat_lin_w212_c3: x_w212_c3 + y_w212_c3 >= 0.0496
  lat_lin_w212_c4: x_w212_c4 + y_w212_c4 >= 0.1506
  lat_lin_w212_c5: x_w212_c5 + y_w212_c5 >= 0.1061
  lat_lin_w212_c6: x_w212_c6 + y_w212_c6 >= 0.1936
  lat_lin_w212_c7: x_w212_c7 + y_w212_c7 >= 0.1982
  lat_lin_w212_c8: x_w212_c8 + y_w212_c8 >= 0.0534
  lat_lin_w212_c9: x_w212_c9 + y_w212_c9 >= 0.0559
  lat_lin_w212_c10: x_w212_c10 + y_w212_c10 >= 0.0422
  lat_lin_w212_c11: x_w212_c11 + y_w212_c11 >= 0.1775
  lat_lin_w212_c12: x_w212_c12 + y_w212_c12 >= 0.0986
  lat_lin_w212_c13: x_w212_c13 + y_w212_c13 >= 0.1631
  lat_lin_w212_c14: x_w212_c14 + y_w212_c14 >= 0.1079
  lat_lin_w212_c15: x_w212_c15 + y_w212_c15 >= 0.0275
  lat_lin_w212_c16: x_w212_c16 + y_w212_c16 >= 0.1533
  lat_lin_w212_c17: x_w212_c17 + y_w212_c17 >= 0.0385
  lat_lin_w212_c18: x_w212_c18 + y_w212_c18 >= 0.2145
  lat_lin_w212_c19: x_w212_c19 + y_w212_c19 >= 0.1593
  lat_lin_w212_c20: x_w212_c20 + y_w212_c20 >= 0.0292
  lat_lin_w212_c21: x_w212_c21 + y_w212_c21 >= 0.1577
  lat_lin_w212_c22: x_w212_c22 + y_w212_c22 >= 0.0904
  lat_lin_w212_c23: x_w212_c23 + y_w212_c23 >= 0.1894
  lat_lin_w212_c24: x_w212_c24 + y_w212_c24 >= 0.1131
  demand_w212: x_w212_c0 + x_w212_c1 + x_w212_c2 + x_w212_c3 + x_w212_c4 + x_w212_c5 + x_w212_c6 + x_w212_c7 + x_w212_c8 + x_w212_c9 + x_w212_c10 + x_w212_c11 + x_w212_c12 + x_w212_c13 + x_w212_c14 + x_w212_c15 + x_w212_c16 + x_w212_c17 + x_w212_c18 + x_w212_c19 + x_w212_c20 + x_w212_c21 + x_w212_c22 + x_w212_c23 + x_w212_c24 = 3
  lat_lin_w213_c0: x_w213_c0 + y_w213_c0 >= 0.3343
  lat_lin_w213_c1: x_w213_c1 + y_w213_c1 >= 0.2952
  lat_lin_w213_c2: x_w213_c2 + y_w213_c2 >= 0.4201
  lat_lin_w213_c3: x_w213_c3 + y_w213_c3 >= 0.1068
  lat_lin_w213_c4: x_w213_c4 + y_w213_c4 >= 0.0433
  lat_lin_w213_c5: x_w213_c5 + y_w213_c5 >= 0.2033
  lat_lin_w213_c6: x_w213_c6 + y_w213_c6 >= 0.0662
  lat_lin_w213_c7: x_w213_c7 + y_w213_c7 >= 0.1032
  lat_lin_w213_c8: x_w213_c8 + y_w213_c8 >= 0.1877
  lat_lin_w213_c9: x_w213_c9 + y_w213_c9 >= 0.3573
  lat_lin_w213_c10: x_w213_c10 + y_w213_c10 >= 0.3664
  lat_lin_w213_c11: x_w213_c11 + y_w213_c11 >= 0.3319
  lat_lin_w213_c12: x_w213_c12 + y_w213_c12 >= 0.0257
  lat_lin_w213_c13: x_w213_c13 + y_w213_c13 >= 0.1393
  lat_lin_w213_c14: x_w213_c14 + y_w213_c14 >= 0.0575
  lat_lin_w213_c15: x_w213_c15 + y_w213_c15 >= 0.3671
  lat_lin_w213_c16: x_w213_c16 + y_w213_c16 >= 0.2901
  lat_lin_w213_c17: x_w213_c17 + y_w213_c17 >= 0.1227
  lat_lin_w213_c18: x_w213_c18 + y_w213_c18 >= 0.1213
  lat_lin_w213_c19: x_w213_c19 + y_w213_c19 >= 0.1941
  lat_lin_w213_c20: x_w213_c20 + y_w213_c20 >= 0.3954
  lat_lin_w213_c21: x_w213_c21 + y_w213_c21 >= 0.0765
  lat_lin_w213_c22: x_w213_c22 + y_w213_c22 >= 0.2697
  lat_lin_w213_c23: x_w213_c23 + y_w213_c23 >= 0.0771
  lat_lin_w213_c24: x_w213_c24 + y_w213_c24 >= 0.0478
  demand_w213: x_w213_c0 + x_w213_c1 + x_w213_c2 + x_w213_c3 + x_w213_c4 + x_w213_c5 + x_w213_c6 + x_w213_c7 + x_w213_c8 + x_w213_c9 + x_w213_c10 + x_w213_c11 + x_w213_c12 + x_w213_c13 + x_w213_c14 + x_w213_c15 + x_w213_c16 + x_w213_c17 + x_w213_c18 + x_w213_c19 + x_w213_c20 + x_w213_c21 + x_w213_c22 + x_w213_c23 + x_w213_c24 = 5
  lat_lin_w214_c0: x_w214_c0 + y_w214_c0 >= 0.4617
  lat_lin_w214_c1: x_w214_c1 + y_w214_c1 >= 0.3579
  lat_lin_w214_c2: x_w214_c2 + y_w214_c2 >= 0.1743
  lat_lin_w214_c3: x_w214_c3 + y_w214_c3 >= 0.2788
  lat_lin_w214_c4: x_w214_c4 + y_w214_c4 >= 0.0507
  lat_lin_w214_c5: x_w214_c5 + y_w214_c5 >= 0.1088
  lat_lin_w214_c6: x_w214_c6 + y_w214_c6 >= 0.0774
  lat_lin_w214_c7: x_w214_c7 + y_w214_c7 >= 0.3972
  lat_lin_w214_c8: x_w214_c8 + y_w214_c8 >= 0.2047
  lat_lin_w214_c9: x_w214_c9 + y_w214_c9 >= 0.4814
  lat_lin_w214_c10: x_w214_c10 + y_w214_c10 >= 0.3333
  lat_lin_w214_c11: x_w214_c11 + y_w214_c11 >= 0.3957
  lat_lin_w214_c12: x_w214_c12 + y_w214_c12 >= 0.3307
  lat_lin_w214_c13: x_w214_c13 + y_w214_c13 >= 0.3956
  lat_lin_w214_c14: x_w214_c14 + y_w214_c14 >= 0.0690
  lat_lin_w214_c15: x_w214_c15 + y_w214_c15 >= 0.4826
  lat_lin_w214_c16: x_w214_c16 + y_w214_c16 >= 0.3104
  lat_lin_w214_c17: x_w214_c17 + y_w214_c17 >= 0.2978
  lat_lin_w214_c18: x_w214_c18 + y_w214_c18 >= 0.2334
  lat_lin_w214_c19: x_w214_c19 + y_w214_c19 >= 0.2531
  lat_lin_w214_c20: x_w214_c20 + y_w214_c20 >= 0.2801
  lat_lin_w214_c21: x_w214_c21 + y_w214_c21 >= 0.3295
  lat_lin_w214_c22: x_w214_c22 + y_w214_c22 >= 0.3009
  lat_lin_w214_c23: x_w214_c23 + y_w214_c23 >= 0.0021
  lat_lin_w214_c24: x_w214_c24 + y_w214_c24 >= 0.3928
  demand_w214: x_w214_c0 + x_w214_c1 + x_w214_c2 + x_w214_c3 + x_w214_c4 + x_w214_c5 + x_w214_c6 + x_w214_c7 + x_w214_c8 + x_w214_c9 + x_w214_c10 + x_w214_c11 + x_w214_c12 + x_w214_c13 + x_w214_c14 + x_w214_c15 + x_w214_c16 + x_w214_c17 + x_w214_c18 + x_w214_c19 + x_w214_c20 + x_w214_c21 + x_w214_c22 + x_w214_c23 + x_w214_c24 = 7
  lat_lin_w215_c0: x_w215_c0 + y_w215_c0 >= 0.7238
  lat_lin_w215_c1: x_w215_c1 + y_w215_c1 >= 0.7336
  lat_lin_w215_c2: x_w215_c2 + y_w215_c2 >= 0.7545
  lat_lin_w215_c3: x_w215_c3 + y_w215_c3 >= 0.2296
  lat_lin_w215_c4: x_w215_c4 + y_w215_c4 >= 0.5537
  lat_lin_w215_c5: x_w215_c5 + y_w215_c5 >= 1.0375
  lat_lin_w215_c6: x_w215_c6 + y_w215_c6 >= 0.4352
  lat_lin_w215_c7: x_w215_c7 + y_w215_c7 >= 0.8436
  lat_lin_w215_c8: x_w215_c8 + y_w215_c8 >= 0.6288
  lat_lin_w215_c9: x_w215_c9 + y_w215_c9 >= 1.2332
  lat_lin_w215_c10: x_w215_c10 + y_w215_c10 >= 0.0003
  lat_lin_w215_c11: x_w215_c11 + y_w215_c11 >= 0.3831
  lat_lin_w215_c12: x_w215_c12 + y_w215_c12 >= 0.2873
  lat_lin_w215_c13: x_w215_c13 + y_w215_c13 >= 0.9492
  lat_lin_w215_c14: x_w215_c14 + y_w215_c14 >= 0.3461
  lat_lin_w215_c15: x_w215_c15 + y_w215_c15 >= 0.1163
  lat_lin_w215_c16: x_w215_c16 + y_w215_c16 >= 0.0907
  lat_lin_w215_c17: x_w215_c17 + y_w215_c17 >= 0.6122
  lat_lin_w215_c18: x_w215_c18 + y_w215_c18 >= 0.7369
  lat_lin_w215_c19: x_w215_c19 + y_w215_c19 >= 1.1840
  lat_lin_w215_c20: x_w215_c20 + y_w215_c20 >= 0.5753
  lat_lin_w215_c21: x_w215_c21 + y_w215_c21 >= 0.1995
  lat_lin_w215_c22: x_w215_c22 + y_w215_c22 >= 0.7632
  lat_lin_w215_c23: x_w215_c23 + y_w215_c23 >= 0.7827
  lat_lin_w215_c24: x_w215_c24 + y_w215_c24 >= 0.7998
  demand_w215: x_w215_c0 + x_w215_c1 + x_w215_c2 + x_w215_c3 + x_w215_c4 + x_w215_c5 + x_w215_c6 + x_w215_c7 + x_w215_c8 + x_w215_c9 + x_w215_c10 + x_w215_c11 + x_w215_c12 + x_w215_c13 + x_w215_c14 + x_w215_c15 + x_w215_c16 + x_w215_c17 + x_w215_c18 + x_w215_c19 + x_w215_c20 + x_w215_c21 + x_w215_c22 + x_w215_c23 + x_w215_c24 = 15
  lat_lin_w216_c0: x_w216_c0 + y_w216_c0 >= 0.6532
  lat_lin_w216_c1: x_w216_c1 + y_w216_c1 >= 0.0223
  lat_lin_w216_c2: x_w216_c2 + y_w216_c2 >= 0.2706
  lat_lin_w216_c3: x_w216_c3 + y_w216_c3 >= 0.4571
  lat_lin_w216_c4: x_w216_c4 + y_w216_c4 >= 0.0746
  lat_lin_w216_c5: x_w216_c5 + y_w216_c5 >= 1.0938
  lat_lin_w216_c6: x_w216_c6 + y_w216_c6 >= 0.0197
  lat_lin_w216_c7: x_w216_c7 + y_w216_c7 >= 0.6211
  lat_lin_w216_c8: x_w216_c8 + y_w216_c8 >= 1.3799
  lat_lin_w216_c9: x_w216_c9 + y_w216_c9 >= 0.8807
  lat_lin_w216_c10: x_w216_c10 + y_w216_c10 >= 0.2337
  lat_lin_w216_c11: x_w216_c11 + y_w216_c11 >= 0.8411
  lat_lin_w216_c12: x_w216_c12 + y_w216_c12 >= 1.5357
  lat_lin_w216_c13: x_w216_c13 + y_w216_c13 >= 0.3373
  lat_lin_w216_c14: x_w216_c14 + y_w216_c14 >= 0.2765
  lat_lin_w216_c15: x_w216_c15 + y_w216_c15 >= 0.9254
  lat_lin_w216_c16: x_w216_c16 + y_w216_c16 >= 1.1504
  lat_lin_w216_c17: x_w216_c17 + y_w216_c17 >= 1.2908
  lat_lin_w216_c18: x_w216_c18 + y_w216_c18 >= 0.4714
  lat_lin_w216_c19: x_w216_c19 + y_w216_c19 >= 0.3948
  lat_lin_w216_c20: x_w216_c20 + y_w216_c20 >= 0.1804
  lat_lin_w216_c21: x_w216_c21 + y_w216_c21 >= 0.0519
  lat_lin_w216_c22: x_w216_c22 + y_w216_c22 >= 0.3829
  lat_lin_w216_c23: x_w216_c23 + y_w216_c23 >= 1.1001
  lat_lin_w216_c24: x_w216_c24 + y_w216_c24 >= 0.3545
  demand_w216: x_w216_c0 + x_w216_c1 + x_w216_c2 + x_w216_c3 + x_w216_c4 + x_w216_c5 + x_w216_c6 + x_w216_c7 + x_w216_c8 + x_w216_c9 + x_w216_c10 + x_w216_c11 + x_w216_c12 + x_w216_c13 + x_w216_c14 + x_w216_c15 + x_w216_c16 + x_w216_c17 + x_w216_c18 + x_w216_c19 + x_w216_c20 + x_w216_c21 + x_w216_c22 + x_w216_c23 + x_w216_c24 = 15
  lat_lin_w217_c0: x_w217_c0 + y_w217_c0 >= 0.2975
  lat_lin_w217_c1: x_w217_c1 + y_w217_c1 >= 0.4845
  lat_lin_w217_c2: x_w217_c2 + y_w217_c2 >= 0.4204
  lat_lin_w217_c3: x_w217_c3 + y_w217_c3 >= 0.3419
  lat_lin_w217_c4: x_w217_c4 + y_w217_c4 >= 0.4278
  lat_lin_w217_c5: x_w217_c5 + y_w217_c5 >= 0.2433
  lat_lin_w217_c6: x_w217_c6 + y_w217_c6 >= 0.4720
  lat_lin_w217_c7: x_w217_c7 + y_w217_c7 >= 0.5413
  lat_lin_w217_c8: x_w217_c8 + y_w217_c8 >= 0.3691
  lat_lin_w217_c9: x_w217_c9 + y_w217_c9 >= 0.3438
  lat_lin_w217_c10: x_w217_c10 + y_w217_c10 >= 0.1571
  lat_lin_w217_c11: x_w217_c11 + y_w217_c11 >= 0.4546
  lat_lin_w217_c12: x_w217_c12 + y_w217_c12 >= 0.2338
  lat_lin_w217_c13: x_w217_c13 + y_w217_c13 >= 0.3494
  lat_lin_w217_c14: x_w217_c14 + y_w217_c14 >= 0.0709
  lat_lin_w217_c15: x_w217_c15 + y_w217_c15 >= 0.5884
  lat_lin_w217_c16: x_w217_c16 + y_w217_c16 >= 0.3256
  lat_lin_w217_c17: x_w217_c17 + y_w217_c17 >= 0.6367
  lat_lin_w217_c18: x_w217_c18 + y_w217_c18 >= 0.5373
  lat_lin_w217_c19: x_w217_c19 + y_w217_c19 >= 0.1328
  lat_lin_w217_c20: x_w217_c20 + y_w217_c20 >= 0.5519
  lat_lin_w217_c21: x_w217_c21 + y_w217_c21 >= 0.3545
  lat_lin_w217_c22: x_w217_c22 + y_w217_c22 >= 0.0470
  lat_lin_w217_c23: x_w217_c23 + y_w217_c23 >= 0.0688
  lat_lin_w217_c24: x_w217_c24 + y_w217_c24 >= 0.5498
  demand_w217: x_w217_c0 + x_w217_c1 + x_w217_c2 + x_w217_c3 + x_w217_c4 + x_w217_c5 + x_w217_c6 + x_w217_c7 + x_w217_c8 + x_w217_c9 + x_w217_c10 + x_w217_c11 + x_w217_c12 + x_w217_c13 + x_w217_c14 + x_w217_c15 + x_w217_c16 + x_w217_c17 + x_w217_c18 + x_w217_c19 + x_w217_c20 + x_w217_c21 + x_w217_c22 + x_w217_c23 + x_w217_c24 = 9
  lat_lin_w218_c0: x_w218_c0 + y_w218_c0 >= 0.1683
  lat_lin_w218_c1: x_w218_c1 + y_w218_c1 >= 0.2441
  lat_lin_w218_c2: x_w218_c2 + y_w218_c2 >= 0.1871
  lat_lin_w218_c3: x_w218_c3 + y_w218_c3 >= 0.2926
  lat_lin_w218_c4: x_w218_c4 + y_w218_c4 >= 0.1449
  lat_lin_w218_c5: x_w218_c5 + y_w218_c5 >= 0.3823
  lat_lin_w218_c6: x_w218_c6 + y_w218_c6 >= 0.3110
  lat_lin_w218_c7: x_w218_c7 + y_w218_c7 >= 0.2129
  lat_lin_w218_c8: x_w218_c8 + y_w218_c8 >= 0.1656
  lat_lin_w218_c9: x_w218_c9 + y_w218_c9 >= 0.2316
  lat_lin_w218_c10: x_w218_c10 + y_w218_c10 >= 0.2484
  lat_lin_w218_c11: x_w218_c11 + y_w218_c11 >= 0.1318
  lat_lin_w218_c12: x_w218_c12 + y_w218_c12 >= 0.3400
  lat_lin_w218_c13: x_w218_c13 + y_w218_c13 >= 0.3513
  lat_lin_w218_c14: x_w218_c14 + y_w218_c14 >= 0.0547
  lat_lin_w218_c15: x_w218_c15 + y_w218_c15 >= 0.1369
  lat_lin_w218_c16: x_w218_c16 + y_w218_c16 >= 0.3678
  lat_lin_w218_c17: x_w218_c17 + y_w218_c17 >= 0.3112
  lat_lin_w218_c18: x_w218_c18 + y_w218_c18 >= 0.2728
  lat_lin_w218_c19: x_w218_c19 + y_w218_c19 >= 0.2885
  lat_lin_w218_c20: x_w218_c20 + y_w218_c20 >= 0.0537
  lat_lin_w218_c21: x_w218_c21 + y_w218_c21 >= 0.2417
  lat_lin_w218_c22: x_w218_c22 + y_w218_c22 >= 0.3632
  lat_lin_w218_c23: x_w218_c23 + y_w218_c23 >= 0.2278
  lat_lin_w218_c24: x_w218_c24 + y_w218_c24 >= 0.2700
  demand_w218: x_w218_c0 + x_w218_c1 + x_w218_c2 + x_w218_c3 + x_w218_c4 + x_w218_c5 + x_w218_c6 + x_w218_c7 + x_w218_c8 + x_w218_c9 + x_w218_c10 + x_w218_c11 + x_w218_c12 + x_w218_c13 + x_w218_c14 + x_w218_c15 + x_w218_c16 + x_w218_c17 + x_w218_c18 + x_w218_c19 + x_w218_c20 + x_w218_c21 + x_w218_c22 + x_w218_c23 + x_w218_c24 = 6
  lat_lin_w219_c0: x_w219_c0 + y_w219_c0 >= 0.3360
  lat_lin_w219_c1: x_w219_c1 + y_w219_c1 >= 0.2551
  lat_lin_w219_c2: x_w219_c2 + y_w219_c2 >= 0.3270
  lat_lin_w219_c3: x_w219_c3 + y_w219_c3 >= 0.0738
  lat_lin_w219_c4: x_w219_c4 + y_w219_c4 >= 0.3744
  lat_lin_w219_c5: x_w219_c5 + y_w219_c5 >= 0.3938
  lat_lin_w219_c6: x_w219_c6 + y_w219_c6 >= 0.4862
  lat_lin_w219_c7: x_w219_c7 + y_w219_c7 >= 0.1240
  lat_lin_w219_c8: x_w219_c8 + y_w219_c8 >= 0.3900
  lat_lin_w219_c9: x_w219_c9 + y_w219_c9 >= 0.5046
  lat_lin_w219_c10: x_w219_c10 + y_w219_c10 >= 0.2885
  lat_lin_w219_c11: x_w219_c11 + y_w219_c11 >= 0.4985
  lat_lin_w219_c12: x_w219_c12 + y_w219_c12 >= 0.4252
  lat_lin_w219_c13: x_w219_c13 + y_w219_c13 >= 0.2280
  lat_lin_w219_c14: x_w219_c14 + y_w219_c14 >= 0.4386
  lat_lin_w219_c15: x_w219_c15 + y_w219_c15 >= 0.0897
  lat_lin_w219_c16: x_w219_c16 + y_w219_c16 >= 0.2954
  lat_lin_w219_c17: x_w219_c17 + y_w219_c17 >= 0.0514
  lat_lin_w219_c18: x_w219_c18 + y_w219_c18 >= 0.0786
  lat_lin_w219_c19: x_w219_c19 + y_w219_c19 >= 0.0917
  lat_lin_w219_c20: x_w219_c20 + y_w219_c20 >= 0.2262
  lat_lin_w219_c21: x_w219_c21 + y_w219_c21 >= 0.3525
  lat_lin_w219_c22: x_w219_c22 + y_w219_c22 >= 0.3839
  lat_lin_w219_c23: x_w219_c23 + y_w219_c23 >= 0.2182
  lat_lin_w219_c24: x_w219_c24 + y_w219_c24 >= 0.0685
  demand_w219: x_w219_c0 + x_w219_c1 + x_w219_c2 + x_w219_c3 + x_w219_c4 + x_w219_c5 + x_w219_c6 + x_w219_c7 + x_w219_c8 + x_w219_c9 + x_w219_c10 + x_w219_c11 + x_w219_c12 + x_w219_c13 + x_w219_c14 + x_w219_c15 + x_w219_c16 + x_w219_c17 + x_w219_c18 + x_w219_c19 + x_w219_c20 + x_w219_c21 + x_w219_c22 + x_w219_c23 + x_w219_c24 = 7
  lat_lin_w220_c0: x_w220_c0 + y_w220_c0 >= 0.0428
  lat_lin_w220_c1: x_w220_c1 + y_w220_c1 >= 0.2919
  lat_lin_w220_c2: x_w220_c2 + y_w220_c2 >= 0.3028
  lat_lin_w220_c3: x_w220_c3 + y_w220_c3 >= 0.0187
  lat_lin_w220_c4: x_w220_c4 + y_w220_c4 >= 0.3520
  lat_lin_w220_c5: x_w220_c5 + y_w220_c5 >= 0.2607
  lat_lin_w220_c6: x_w220_c6 + y_w220_c6 >= 0.3814
  lat_lin_w220_c7: x_w220_c7 + y_w220_c7 >= 0.2543
  lat_lin_w220_c8: x_w220_c8 + y_w220_c8 >= 0.1527
  lat_lin_w220_c9: x_w220_c9 + y_w220_c9 >= 0.2036
  lat_lin_w220_c10: x_w220_c10 + y_w220_c10 >= 0.1558
  lat_lin_w220_c11: x_w220_c11 + y_w220_c11 >= 0.4010
  lat_lin_w220_c12: x_w220_c12 + y_w220_c12 >= 0.2460
  lat_lin_w220_c13: x_w220_c13 + y_w220_c13 >= 0.1073
  lat_lin_w220_c14: x_w220_c14 + y_w220_c14 >= 0.2769
  lat_lin_w220_c15: x_w220_c15 + y_w220_c15 >= 0.3929
  lat_lin_w220_c16: x_w220_c16 + y_w220_c16 >= 0.2179
  lat_lin_w220_c17: x_w220_c17 + y_w220_c17 >= 0.3490
  lat_lin_w220_c18: x_w220_c18 + y_w220_c18 >= 0.3576
  lat_lin_w220_c19: x_w220_c19 + y_w220_c19 >= 0.3953
  lat_lin_w220_c20: x_w220_c20 + y_w220_c20 >= 0.0178
  lat_lin_w220_c21: x_w220_c21 + y_w220_c21 >= 0.2919
  lat_lin_w220_c22: x_w220_c22 + y_w220_c22 >= 0.3217
  lat_lin_w220_c23: x_w220_c23 + y_w220_c23 >= 0.1716
  lat_lin_w220_c24: x_w220_c24 + y_w220_c24 >= 0.0366
  demand_w220: x_w220_c0 + x_w220_c1 + x_w220_c2 + x_w220_c3 + x_w220_c4 + x_w220_c5 + x_w220_c6 + x_w220_c7 + x_w220_c8 + x_w220_c9 + x_w220_c10 + x_w220_c11 + x_w220_c12 + x_w220_c13 + x_w220_c14 + x_w220_c15 + x_w220_c16 + x_w220_c17 + x_w220_c18 + x_w220_c19 + x_w220_c20 + x_w220_c21 + x_w220_c22 + x_w220_c23 + x_w220_c24 = 6
  lat_lin_w221_c0: x_w221_c0 + y_w221_c0 >= 0.1425
  lat_lin_w221_c1: x_w221_c1 + y_w221_c1 >= 0.6576
  lat_lin_w221_c2: x_w221_c2 + y_w221_c2 >= 0.2891
  lat_lin_w221_c3: x_w221_c3 + y_w221_c3 >= 0.3725
  lat_lin_w221_c4: x_w221_c4 + y_w221_c4 >= 0.5237
  lat_lin_w221_c5: x_w221_c5 + y_w221_c5 >= 0.8315
  lat_lin_w221_c6: x_w221_c6 + y_w221_c6 >= 0.3289
  lat_lin_w221_c7: x_w221_c7 + y_w221_c7 >= 0.0453
  lat_lin_w221_c8: x_w221_c8 + y_w221_c8 >= 0.4912
  lat_lin_w221_c9: x_w221_c9 + y_w221_c9 >= 0.8023
  lat_lin_w221_c10: x_w221_c10 + y_w221_c10 >= 0.3192
  lat_lin_w221_c11: x_w221_c11 + y_w221_c11 >= 0.6249
  lat_lin_w221_c12: x_w221_c12 + y_w221_c12 >= 0.1637
  lat_lin_w221_c13: x_w221_c13 + y_w221_c13 >= 0.4686
  lat_lin_w221_c14: x_w221_c14 + y_w221_c14 >= 0.0274
  lat_lin_w221_c15: x_w221_c15 + y_w221_c15 >= 0.0943
  lat_lin_w221_c16: x_w221_c16 + y_w221_c16 >= 0.2446
  lat_lin_w221_c17: x_w221_c17 + y_w221_c17 >= 0.6116
  lat_lin_w221_c18: x_w221_c18 + y_w221_c18 >= 0.8281
  lat_lin_w221_c19: x_w221_c19 + y_w221_c19 >= 0.7010
  lat_lin_w221_c20: x_w221_c20 + y_w221_c20 >= 0.0022
  lat_lin_w221_c21: x_w221_c21 + y_w221_c21 >= 0.1351
  lat_lin_w221_c22: x_w221_c22 + y_w221_c22 >= 0.0418
  lat_lin_w221_c23: x_w221_c23 + y_w221_c23 >= 0.1855
  lat_lin_w221_c24: x_w221_c24 + y_w221_c24 >= 0.0672
  demand_w221: x_w221_c0 + x_w221_c1 + x_w221_c2 + x_w221_c3 + x_w221_c4 + x_w221_c5 + x_w221_c6 + x_w221_c7 + x_w221_c8 + x_w221_c9 + x_w221_c10 + x_w221_c11 + x_w221_c12 + x_w221_c13 + x_w221_c14 + x_w221_c15 + x_w221_c16 + x_w221_c17 + x_w221_c18 + x_w221_c19 + x_w221_c20 + x_w221_c21 + x_w221_c22 + x_w221_c23 + x_w221_c24 = 9
  lat_lin_w222_c0: x_w222_c0 + y_w222_c0 >= 0.3515
  lat_lin_w222_c1: x_w222_c1 + y_w222_c1 >= 0.4158
  lat_lin_w222_c2: x_w222_c2 + y_w222_c2 >= 0.2539
  lat_lin_w222_c3: x_w222_c3 + y_w222_c3 >= 0.2990
  lat_lin_w222_c4: x_w222_c4 + y_w222_c4 >= 0.3584
  lat_lin_w222_c5: x_w222_c5 + y_w222_c5 >= 0.3961
  lat_lin_w222_c6: x_w222_c6 + y_w222_c6 >= 0.3507
  lat_lin_w222_c7: x_w222_c7 + y_w222_c7 >= 0.4188
  lat_lin_w222_c8: x_w222_c8 + y_w222_c8 >= 0.2086
  lat_lin_w222_c9: x_w222_c9 + y_w222_c9 >= 0.1522
  lat_lin_w222_c10: x_w222_c10 + y_w222_c10 >= 0.1185
  lat_lin_w222_c11: x_w222_c11 + y_w222_c11 >= 0.3040
  lat_lin_w222_c12: x_w222_c12 + y_w222_c12 >= 0.2853
  lat_lin_w222_c13: x_w222_c13 + y_w222_c13 >= 0.0650
  lat_lin_w222_c14: x_w222_c14 + y_w222_c14 >= 0.1328
  lat_lin_w222_c15: x_w222_c15 + y_w222_c15 >= 0.2572
  lat_lin_w222_c16: x_w222_c16 + y_w222_c16 >= 0.3939
  lat_lin_w222_c17: x_w222_c17 + y_w222_c17 >= 0.2053
  lat_lin_w222_c18: x_w222_c18 + y_w222_c18 >= 0.4748
  lat_lin_w222_c19: x_w222_c19 + y_w222_c19 >= 0.1685
  lat_lin_w222_c20: x_w222_c20 + y_w222_c20 >= 0.4551
  lat_lin_w222_c21: x_w222_c21 + y_w222_c21 >= 0.3201
  lat_lin_w222_c22: x_w222_c22 + y_w222_c22 >= 0.3741
  lat_lin_w222_c23: x_w222_c23 + y_w222_c23 >= 0.1130
  lat_lin_w222_c24: x_w222_c24 + y_w222_c24 >= 0.1276
  demand_w222: x_w222_c0 + x_w222_c1 + x_w222_c2 + x_w222_c3 + x_w222_c4 + x_w222_c5 + x_w222_c6 + x_w222_c7 + x_w222_c8 + x_w222_c9 + x_w222_c10 + x_w222_c11 + x_w222_c12 + x_w222_c13 + x_w222_c14 + x_w222_c15 + x_w222_c16 + x_w222_c17 + x_w222_c18 + x_w222_c19 + x_w222_c20 + x_w222_c21 + x_w222_c22 + x_w222_c23 + x_w222_c24 = 7
  lat_lin_w223_c0: x_w223_c0 + y_w223_c0 >= 0.2593
  lat_lin_w223_c1: x_w223_c1 + y_w223_c1 >= 1.0719
  lat_lin_w223_c2: x_w223_c2 + y_w223_c2 >= 0.1021
  lat_lin_w223_c3: x_w223_c3 + y_w223_c3 >= 1.0543
  lat_lin_w223_c4: x_w223_c4 + y_w223_c4 >= 0.9237
  lat_lin_w223_c5: x_w223_c5 + y_w223_c5 >= 0.2558
  lat_lin_w223_c6: x_w223_c6 + y_w223_c6 >= 0.7806
  lat_lin_w223_c7: x_w223_c7 + y_w223_c7 >= 0.4196
  lat_lin_w223_c8: x_w223_c8 + y_w223_c8 >= 1.1031
  lat_lin_w223_c9: x_w223_c9 + y_w223_c9 >= 0.2983
  lat_lin_w223_c10: x_w223_c10 + y_w223_c10 >= 0.1677
  lat_lin_w223_c11: x_w223_c11 + y_w223_c11 >= 0.7211
  lat_lin_w223_c12: x_w223_c12 + y_w223_c12 >= 0.9276
  lat_lin_w223_c13: x_w223_c13 + y_w223_c13 >= 0.8672
  lat_lin_w223_c14: x_w223_c14 + y_w223_c14 >= 0.3279
  lat_lin_w223_c15: x_w223_c15 + y_w223_c15 >= 0.9565
  lat_lin_w223_c16: x_w223_c16 + y_w223_c16 >= 0.6138
  lat_lin_w223_c17: x_w223_c17 + y_w223_c17 >= 0.8998
  lat_lin_w223_c18: x_w223_c18 + y_w223_c18 >= 0.1917
  lat_lin_w223_c19: x_w223_c19 + y_w223_c19 >= 0.3774
  lat_lin_w223_c20: x_w223_c20 + y_w223_c20 >= 0.5843
  lat_lin_w223_c21: x_w223_c21 + y_w223_c21 >= 0.0369
  lat_lin_w223_c22: x_w223_c22 + y_w223_c22 >= 0.4168
  lat_lin_w223_c23: x_w223_c23 + y_w223_c23 >= 0.9957
  lat_lin_w223_c24: x_w223_c24 + y_w223_c24 >= 0.6469
  demand_w223: x_w223_c0 + x_w223_c1 + x_w223_c2 + x_w223_c3 + x_w223_c4 + x_w223_c5 + x_w223_c6 + x_w223_c7 + x_w223_c8 + x_w223_c9 + x_w223_c10 + x_w223_c11 + x_w223_c12 + x_w223_c13 + x_w223_c14 + x_w223_c15 + x_w223_c16 + x_w223_c17 + x_w223_c18 + x_w223_c19 + x_w223_c20 + x_w223_c21 + x_w223_c22 + x_w223_c23 + x_w223_c24 = 15
  lat_lin_w224_c0: x_w224_c0 + y_w224_c0 >= 0.4642
  lat_lin_w224_c1: x_w224_c1 + y_w224_c1 >= 0.1853
  lat_lin_w224_c2: x_w224_c2 + y_w224_c2 >= 0.0909
  lat_lin_w224_c3: x_w224_c3 + y_w224_c3 >= 0.1315
  lat_lin_w224_c4: x_w224_c4 + y_w224_c4 >= 0.3098
  lat_lin_w224_c5: x_w224_c5 + y_w224_c5 >= 0.3510
  lat_lin_w224_c6: x_w224_c6 + y_w224_c6 >= 0.4891
  lat_lin_w224_c7: x_w224_c7 + y_w224_c7 >= 0.3891
  lat_lin_w224_c8: x_w224_c8 + y_w224_c8 >= 0.2924
  lat_lin_w224_c9: x_w224_c9 + y_w224_c9 >= 0.4585
  lat_lin_w224_c10: x_w224_c10 + y_w224_c10 >= 0.3856
  lat_lin_w224_c11: x_w224_c11 + y_w224_c11 >= 0.0559
  lat_lin_w224_c12: x_w224_c12 + y_w224_c12 >= 0.3359
  lat_lin_w224_c13: x_w224_c13 + y_w224_c13 >= 0.2250
  lat_lin_w224_c14: x_w224_c14 + y_w224_c14 >= 0.3717
  lat_lin_w224_c15: x_w224_c15 + y_w224_c15 >= 0.2018
  lat_lin_w224_c16: x_w224_c16 + y_w224_c16 >= 0.2989
  lat_lin_w224_c17: x_w224_c17 + y_w224_c17 >= 0.2964
  lat_lin_w224_c18: x_w224_c18 + y_w224_c18 >= 0.2631
  lat_lin_w224_c19: x_w224_c19 + y_w224_c19 >= 0.2172
  lat_lin_w224_c20: x_w224_c20 + y_w224_c20 >= 0.3489
  lat_lin_w224_c21: x_w224_c21 + y_w224_c21 >= 0.0627
  lat_lin_w224_c22: x_w224_c22 + y_w224_c22 >= 0.0114
  lat_lin_w224_c23: x_w224_c23 + y_w224_c23 >= 0.1974
  lat_lin_w224_c24: x_w224_c24 + y_w224_c24 >= 0.5664
  demand_w224: x_w224_c0 + x_w224_c1 + x_w224_c2 + x_w224_c3 + x_w224_c4 + x_w224_c5 + x_w224_c6 + x_w224_c7 + x_w224_c8 + x_w224_c9 + x_w224_c10 + x_w224_c11 + x_w224_c12 + x_w224_c13 + x_w224_c14 + x_w224_c15 + x_w224_c16 + x_w224_c17 + x_w224_c18 + x_w224_c19 + x_w224_c20 + x_w224_c21 + x_w224_c22 + x_w224_c23 + x_w224_c24 = 7
  lat_lin_w225_c0: x_w225_c0 + y_w225_c0 >= 0.1931
  lat_lin_w225_c1: x_w225_c1 + y_w225_c1 >= 0.4107
  lat_lin_w225_c2: x_w225_c2 + y_w225_c2 >= 0.0995
  lat_lin_w225_c3: x_w225_c3 + y_w225_c3 >= 0.3812
  lat_lin_w225_c4: x_w225_c4 + y_w225_c4 >= 0.2683
  lat_lin_w225_c5: x_w225_c5 + y_w225_c5 >= 0.1340
  lat_lin_w225_c6: x_w225_c6 + y_w225_c6 >= 0.4879
  lat_lin_w225_c7: x_w225_c7 + y_w225_c7 >= 0.4801
  lat_lin_w225_c8: x_w225_c8 + y_w225_c8 >= 0.0967
  lat_lin_w225_c9: x_w225_c9 + y_w225_c9 >= 0.0911
  lat_lin_w225_c10: x_w225_c10 + y_w225_c10 >= 0.4355
  lat_lin_w225_c11: x_w225_c11 + y_w225_c11 >= 0.2481
  lat_lin_w225_c12: x_w225_c12 + y_w225_c12 >= 0.2920
  lat_lin_w225_c13: x_w225_c13 + y_w225_c13 >= 0.4059
  lat_lin_w225_c14: x_w225_c14 + y_w225_c14 >= 0.1957
  lat_lin_w225_c15: x_w225_c15 + y_w225_c15 >= 0.0714
  lat_lin_w225_c16: x_w225_c16 + y_w225_c16 >= 0.3836
  lat_lin_w225_c17: x_w225_c17 + y_w225_c17 >= 0.1104
  lat_lin_w225_c18: x_w225_c18 + y_w225_c18 >= 0.0880
  lat_lin_w225_c19: x_w225_c19 + y_w225_c19 >= 0.2855
  lat_lin_w225_c20: x_w225_c20 + y_w225_c20 >= 0.2119
  lat_lin_w225_c21: x_w225_c21 + y_w225_c21 >= 0.0990
  lat_lin_w225_c22: x_w225_c22 + y_w225_c22 >= 0.2289
  lat_lin_w225_c23: x_w225_c23 + y_w225_c23 >= 0.2307
  lat_lin_w225_c24: x_w225_c24 + y_w225_c24 >= 0.0707
  demand_w225: x_w225_c0 + x_w225_c1 + x_w225_c2 + x_w225_c3 + x_w225_c4 + x_w225_c5 + x_w225_c6 + x_w225_c7 + x_w225_c8 + x_w225_c9 + x_w225_c10 + x_w225_c11 + x_w225_c12 + x_w225_c13 + x_w225_c14 + x_w225_c15 + x_w225_c16 + x_w225_c17 + x_w225_c18 + x_w225_c19 + x_w225_c20 + x_w225_c21 + x_w225_c22 + x_w225_c23 + x_w225_c24 = 6
  lat_lin_w226_c0: x_w226_c0 + y_w226_c0 >= 0.4768
  lat_lin_w226_c1: x_w226_c1 + y_w226_c1 >= 0.3912
  lat_lin_w226_c2: x_w226_c2 + y_w226_c2 >= 0.3375
  lat_lin_w226_c3: x_w226_c3 + y_w226_c3 >= 0.0686
  lat_lin_w226_c4: x_w226_c4 + y_w226_c4 >= 0.5057
  lat_lin_w226_c5: x_w226_c5 + y_w226_c5 >= 0.0105
  lat_lin_w226_c6: x_w226_c6 + y_w226_c6 >= 0.7578
  lat_lin_w226_c7: x_w226_c7 + y_w226_c7 >= 0.1496
  lat_lin_w226_c8: x_w226_c8 + y_w226_c8 >= 0.1115
  lat_lin_w226_c9: x_w226_c9 + y_w226_c9 >= 0.6021
  lat_lin_w226_c10: x_w226_c10 + y_w226_c10 >= 0.1091
  lat_lin_w226_c11: x_w226_c11 + y_w226_c11 >= 0.6302
  lat_lin_w226_c12: x_w226_c12 + y_w226_c12 >= 0.1573
  lat_lin_w226_c13: x_w226_c13 + y_w226_c13 >= 0.1120
  lat_lin_w226_c14: x_w226_c14 + y_w226_c14 >= 0.3745
  lat_lin_w226_c15: x_w226_c15 + y_w226_c15 >= 0.1356
  lat_lin_w226_c16: x_w226_c16 + y_w226_c16 >= 0.6768
  lat_lin_w226_c17: x_w226_c17 + y_w226_c17 >= 0.2505
  lat_lin_w226_c18: x_w226_c18 + y_w226_c18 >= 0.7133
  lat_lin_w226_c19: x_w226_c19 + y_w226_c19 >= 0.4846
  lat_lin_w226_c20: x_w226_c20 + y_w226_c20 >= 0.2971
  lat_lin_w226_c21: x_w226_c21 + y_w226_c21 >= 0.1174
  lat_lin_w226_c22: x_w226_c22 + y_w226_c22 >= 0.1035
  lat_lin_w226_c23: x_w226_c23 + y_w226_c23 >= 0.2571
  lat_lin_w226_c24: x_w226_c24 + y_w226_c24 >= 0.1698
  demand_w226: x_w226_c0 + x_w226_c1 + x_w226_c2 + x_w226_c3 + x_w226_c4 + x_w226_c5 + x_w226_c6 + x_w226_c7 + x_w226_c8 + x_w226_c9 + x_w226_c10 + x_w226_c11 + x_w226_c12 + x_w226_c13 + x_w226_c14 + x_w226_c15 + x_w226_c16 + x_w226_c17 + x_w226_c18 + x_w226_c19 + x_w226_c20 + x_w226_c21 + x_w226_c22 + x_w226_c23 + x_w226_c24 = 8
  lat_lin_w227_c0: x_w227_c0 + y_w227_c0 >= 0.7194
  lat_lin_w227_c1: x_w227_c1 + y_w227_c1 >= 0.2326
  lat_lin_w227_c2: x_w227_c2 + y_w227_c2 >= 0.3146
  lat_lin_w227_c3: x_w227_c3 + y_w227_c3 >= 0.8462
  lat_lin_w227_c4: x_w227_c4 + y_w227_c4 >= 0.1342
  lat_lin_w227_c5: x_w227_c5 + y_w227_c5 >= 0.4345
  lat_lin_w227_c6: x_w227_c6 + y_w227_c6 >= 0.4028
  lat_lin_w227_c7: x_w227_c7 + y_w227_c7 >= 0.1927
  lat_lin_w227_c8: x_w227_c8 + y_w227_c8 >= 0.7681
  lat_lin_w227_c9: x_w227_c9 + y_w227_c9 >= 0.1190
  lat_lin_w227_c10: x_w227_c10 + y_w227_c10 >= 0.7641
  lat_lin_w227_c11: x_w227_c11 + y_w227_c11 >= 0.7321
  lat_lin_w227_c12: x_w227_c12 + y_w227_c12 >= 0.0155
  lat_lin_w227_c13: x_w227_c13 + y_w227_c13 >= 0.7740
  lat_lin_w227_c14: x_w227_c14 + y_w227_c14 >= 0.5551
  lat_lin_w227_c15: x_w227_c15 + y_w227_c15 >= 0.0176
  lat_lin_w227_c16: x_w227_c16 + y_w227_c16 >= 0.1967
  lat_lin_w227_c17: x_w227_c17 + y_w227_c17 >= 0.0574
  lat_lin_w227_c18: x_w227_c18 + y_w227_c18 >= 0.8705
  lat_lin_w227_c19: x_w227_c19 + y_w227_c19 >= 0.2205
  lat_lin_w227_c20: x_w227_c20 + y_w227_c20 >= 0.0223
  lat_lin_w227_c21: x_w227_c21 + y_w227_c21 >= 0.3042
  lat_lin_w227_c22: x_w227_c22 + y_w227_c22 >= 0.2194
  lat_lin_w227_c23: x_w227_c23 + y_w227_c23 >= 0.6208
  lat_lin_w227_c24: x_w227_c24 + y_w227_c24 >= 0.4657
  demand_w227: x_w227_c0 + x_w227_c1 + x_w227_c2 + x_w227_c3 + x_w227_c4 + x_w227_c5 + x_w227_c6 + x_w227_c7 + x_w227_c8 + x_w227_c9 + x_w227_c10 + x_w227_c11 + x_w227_c12 + x_w227_c13 + x_w227_c14 + x_w227_c15 + x_w227_c16 + x_w227_c17 + x_w227_c18 + x_w227_c19 + x_w227_c20 + x_w227_c21 + x_w227_c22 + x_w227_c23 + x_w227_c24 = 10
  lat_lin_w228_c0: x_w228_c0 + y_w228_c0 >= 0.6801
  lat_lin_w228_c1: x_w228_c1 + y_w228_c1 >= 1.0557
  lat_lin_w228_c2: x_w228_c2 + y_w228_c2 >= 0.0736
  lat_lin_w228_c3: x_w228_c3 + y_w228_c3 >= 0.4465
  lat_lin_w228_c4: x_w228_c4 + y_w228_c4 >= 0.3124
  lat_lin_w228_c5: x_w228_c5 + y_w228_c5 >= 0.5102
  lat_lin_w228_c6: x_w228_c6 + y_w228_c6 >= 0.4495
  lat_lin_w228_c7: x_w228_c7 + y_w228_c7 >= 1.1036
  lat_lin_w228_c8: x_w228_c8 + y_w228_c8 >= 0.4950
  lat_lin_w228_c9: x_w228_c9 + y_w228_c9 >= 0.2373
  lat_lin_w228_c10: x_w228_c10 + y_w228_c10 >= 1.1372
  lat_lin_w228_c11: x_w228_c11 + y_w228_c11 >= 0.6179
  lat_lin_w228_c12: x_w228_c12 + y_w228_c12 >= 0.2818
  lat_lin_w228_c13: x_w228_c13 + y_w228_c13 >= 0.4623
  lat_lin_w228_c14: x_w228_c14 + y_w228_c14 >= 0.0541
  lat_lin_w228_c15: x_w228_c15 + y_w228_c15 >= 0.1243
  lat_lin_w228_c16: x_w228_c16 + y_w228_c16 >= 0.6083
  lat_lin_w228_c17: x_w228_c17 + y_w228_c17 >= 0.6523
  lat_lin_w228_c18: x_w228_c18 + y_w228_c18 >= 0.5185
  lat_lin_w228_c19: x_w228_c19 + y_w228_c19 >= 0.6508
  lat_lin_w228_c20: x_w228_c20 + y_w228_c20 >= 0.7296
  lat_lin_w228_c21: x_w228_c21 + y_w228_c21 >= 1.0428
  lat_lin_w228_c22: x_w228_c22 + y_w228_c22 >= 0.2472
  lat_lin_w228_c23: x_w228_c23 + y_w228_c23 >= 0.2312
  lat_lin_w228_c24: x_w228_c24 + y_w228_c24 >= 0.2778
  demand_w228: x_w228_c0 + x_w228_c1 + x_w228_c2 + x_w228_c3 + x_w228_c4 + x_w228_c5 + x_w228_c6 + x_w228_c7 + x_w228_c8 + x_w228_c9 + x_w228_c10 + x_w228_c11 + x_w228_c12 + x_w228_c13 + x_w228_c14 + x_w228_c15 + x_w228_c16 + x_w228_c17 + x_w228_c18 + x_w228_c19 + x_w228_c20 + x_w228_c21 + x_w228_c22 + x_w228_c23 + x_w228_c24 = 13
  lat_lin_w229_c0: x_w229_c0 + y_w229_c0 >= 0.0317
  lat_lin_w229_c1: x_w229_c1 + y_w229_c1 >= 0.1840
  lat_lin_w229_c2: x_w229_c2 + y_w229_c2 >= 0.5286
  lat_lin_w229_c3: x_w229_c3 + y_w229_c3 >= 0.0828
  lat_lin_w229_c4: x_w229_c4 + y_w229_c4 >= 0.1469
  lat_lin_w229_c5: x_w229_c5 + y_w229_c5 >= 0.9242
  lat_lin_w229_c6: x_w229_c6 + y_w229_c6 >= 0.0350
  lat_lin_w229_c7: x_w229_c7 + y_w229_c7 >= 0.6269
  lat_lin_w229_c8: x_w229_c8 + y_w229_c8 >= 0.4925
  lat_lin_w229_c9: x_w229_c9 + y_w229_c9 >= 0.3522
  lat_lin_w229_c10: x_w229_c10 + y_w229_c10 >= 0.5254
  lat_lin_w229_c11: x_w229_c11 + y_w229_c11 >= 0.8183
  lat_lin_w229_c12: x_w229_c12 + y_w229_c12 >= 1.0621
  lat_lin_w229_c13: x_w229_c13 + y_w229_c13 >= 0.9643
  lat_lin_w229_c14: x_w229_c14 + y_w229_c14 >= 0.5998
  lat_lin_w229_c15: x_w229_c15 + y_w229_c15 >= 1.0183
  lat_lin_w229_c16: x_w229_c16 + y_w229_c16 >= 0.9849
  lat_lin_w229_c17: x_w229_c17 + y_w229_c17 >= 0.3561
  lat_lin_w229_c18: x_w229_c18 + y_w229_c18 >= 0.8961
  lat_lin_w229_c19: x_w229_c19 + y_w229_c19 >= 0.5287
  lat_lin_w229_c20: x_w229_c20 + y_w229_c20 >= 0.4554
  lat_lin_w229_c21: x_w229_c21 + y_w229_c21 >= 0.2069
  lat_lin_w229_c22: x_w229_c22 + y_w229_c22 >= 0.6619
  lat_lin_w229_c23: x_w229_c23 + y_w229_c23 >= 1.0418
  lat_lin_w229_c24: x_w229_c24 + y_w229_c24 >= 0.4753
  demand_w229: x_w229_c0 + x_w229_c1 + x_w229_c2 + x_w229_c3 + x_w229_c4 + x_w229_c5 + x_w229_c6 + x_w229_c7 + x_w229_c8 + x_w229_c9 + x_w229_c10 + x_w229_c11 + x_w229_c12 + x_w229_c13 + x_w229_c14 + x_w229_c15 + x_w229_c16 + x_w229_c17 + x_w229_c18 + x_w229_c19 + x_w229_c20 + x_w229_c21 + x_w229_c22 + x_w229_c23 + x_w229_c24 = 14
  lat_lin_w230_c0: x_w230_c0 + y_w230_c0 >= 0.1479
  lat_lin_w230_c1: x_w230_c1 + y_w230_c1 >= 0.2343
  lat_lin_w230_c2: x_w230_c2 + y_w230_c2 >= 0.3226
  lat_lin_w230_c3: x_w230_c3 + y_w230_c3 >= 0.0195
  lat_lin_w230_c4: x_w230_c4 + y_w230_c4 >= 0.2638
  lat_lin_w230_c5: x_w230_c5 + y_w230_c5 >= 0.2217
  lat_lin_w230_c6: x_w230_c6 + y_w230_c6 >= 0.1670
  lat_lin_w230_c7: x_w230_c7 + y_w230_c7 >= 0.0246
  lat_lin_w230_c8: x_w230_c8 + y_w230_c8 >= 0.0596
  lat_lin_w230_c9: x_w230_c9 + y_w230_c9 >= 0.1116
  lat_lin_w230_c10: x_w230_c10 + y_w230_c10 >= 0.0947
  lat_lin_w230_c11: x_w230_c11 + y_w230_c11 >= 0.1934
  lat_lin_w230_c12: x_w230_c12 + y_w230_c12 >= 0.1719
  lat_lin_w230_c13: x_w230_c13 + y_w230_c13 >= 0.1180
  lat_lin_w230_c14: x_w230_c14 + y_w230_c14 >= 0.2623
  lat_lin_w230_c15: x_w230_c15 + y_w230_c15 >= 0.0909
  lat_lin_w230_c16: x_w230_c16 + y_w230_c16 >= 0.0107
  lat_lin_w230_c17: x_w230_c17 + y_w230_c17 >= 0.1627
  lat_lin_w230_c18: x_w230_c18 + y_w230_c18 >= 0.1876
  lat_lin_w230_c19: x_w230_c19 + y_w230_c19 >= 0.2420
  lat_lin_w230_c20: x_w230_c20 + y_w230_c20 >= 0.3142
  lat_lin_w230_c21: x_w230_c21 + y_w230_c21 >= 0.1353
  lat_lin_w230_c22: x_w230_c22 + y_w230_c22 >= 0.2160
  lat_lin_w230_c23: x_w230_c23 + y_w230_c23 >= 0.1900
  lat_lin_w230_c24: x_w230_c24 + y_w230_c24 >= 0.0376
  demand_w230: x_w230_c0 + x_w230_c1 + x_w230_c2 + x_w230_c3 + x_w230_c4 + x_w230_c5 + x_w230_c6 + x_w230_c7 + x_w230_c8 + x_w230_c9 + x_w230_c10 + x_w230_c11 + x_w230_c12 + x_w230_c13 + x_w230_c14 + x_w230_c15 + x_w230_c16 + x_w230_c17 + x_w230_c18 + x_w230_c19 + x_w230_c20 + x_w230_c21 + x_w230_c22 + x_w230_c23 + x_w230_c24 = 4
  lat_lin_w231_c0: x_w231_c0 + y_w231_c0 >= 0.0714
  lat_lin_w231_c1: x_w231_c1 + y_w231_c1 >= 0.2352
  lat_lin_w231_c2: x_w231_c2 + y_w231_c2 >= 0.1617
  lat_lin_w231_c3: x_w231_c3 + y_w231_c3 >= 0.4751
  lat_lin_w231_c4: x_w231_c4 + y_w231_c4 >= 0.4245
  lat_lin_w231_c5: x_w231_c5 + y_w231_c5 >= 0.5149
  lat_lin_w231_c6: x_w231_c6 + y_w231_c6 >= 0.3012
  lat_lin_w231_c7: x_w231_c7 + y_w231_c7 >= 0.0557
  lat_lin_w231_c8: x_w231_c8 + y_w231_c8 >= 0.5602
  lat_lin_w231_c9: x_w231_c9 + y_w231_c9 >= 0.3074
  lat_lin_w231_c10: x_w231_c10 + y_w231_c10 >= 0.0159
  lat_lin_w231_c11: x_w231_c11 + y_w231_c11 >= 0.2110
  lat_lin_w231_c12: x_w231_c12 + y_w231_c12 >= 0.3967
  lat_lin_w231_c13: x_w231_c13 + y_w231_c13 >= 0.5447
  lat_lin_w231_c14: x_w231_c14 + y_w231_c14 >= 0.2708
  lat_lin_w231_c15: x_w231_c15 + y_w231_c15 >= 0.4374
  lat_lin_w231_c16: x_w231_c16 + y_w231_c16 >= 0.5402
  lat_lin_w231_c17: x_w231_c17 + y_w231_c17 >= 0.3432
  lat_lin_w231_c18: x_w231_c18 + y_w231_c18 >= 0.1121
  lat_lin_w231_c19: x_w231_c19 + y_w231_c19 >= 0.4047
  lat_lin_w231_c20: x_w231_c20 + y_w231_c20 >= 0.3898
  lat_lin_w231_c21: x_w231_c21 + y_w231_c21 >= 0.4850
  lat_lin_w231_c22: x_w231_c22 + y_w231_c22 >= 0.4901
  lat_lin_w231_c23: x_w231_c23 + y_w231_c23 >= 0.2439
  lat_lin_w231_c24: x_w231_c24 + y_w231_c24 >= 0.0072
  demand_w231: x_w231_c0 + x_w231_c1 + x_w231_c2 + x_w231_c3 + x_w231_c4 + x_w231_c5 + x_w231_c6 + x_w231_c7 + x_w231_c8 + x_w231_c9 + x_w231_c10 + x_w231_c11 + x_w231_c12 + x_w231_c13 + x_w231_c14 + x_w231_c15 + x_w231_c16 + x_w231_c17 + x_w231_c18 + x_w231_c19 + x_w231_c20 + x_w231_c21 + x_w231_c22 + x_w231_c23 + x_w231_c24 = 8
  lat_lin_w232_c0: x_w232_c0 + y_w232_c0 >= 0.3486
  lat_lin_w232_c1: x_w232_c1 + y_w232_c1 >= 0.2110
  lat_lin_w232_c2: x_w232_c2 + y_w232_c2 >= 0.3775
  lat_lin_w232_c3: x_w232_c3 + y_w232_c3 >= 0.0836
  lat_lin_w232_c4: x_w232_c4 + y_w232_c4 >= 0.1456
  lat_lin_w232_c5: x_w232_c5 + y_w232_c5 >= 0.1171
  lat_lin_w232_c6: x_w232_c6 + y_w232_c6 >= 0.5540
  lat_lin_w232_c7: x_w232_c7 + y_w232_c7 >= 0.2593
  lat_lin_w232_c8: x_w232_c8 + y_w232_c8 >= 0.5671
  lat_lin_w232_c9: x_w232_c9 + y_w232_c9 >= 0.0384
  lat_lin_w232_c10: x_w232_c10 + y_w232_c10 >= 0.4807
  lat_lin_w232_c11: x_w232_c11 + y_w232_c11 >= 0.1019
  lat_lin_w232_c12: x_w232_c12 + y_w232_c12 >= 0.4805
  lat_lin_w232_c13: x_w232_c13 + y_w232_c13 >= 0.0571
  lat_lin_w232_c14: x_w232_c14 + y_w232_c14 >= 0.2549
  lat_lin_w232_c15: x_w232_c15 + y_w232_c15 >= 0.2801
  lat_lin_w232_c16: x_w232_c16 + y_w232_c16 >= 0.0426
  lat_lin_w232_c17: x_w232_c17 + y_w232_c17 >= 0.1986
  lat_lin_w232_c18: x_w232_c18 + y_w232_c18 >= 0.1120
  lat_lin_w232_c19: x_w232_c19 + y_w232_c19 >= 0.4535
  lat_lin_w232_c20: x_w232_c20 + y_w232_c20 >= 0.4652
  lat_lin_w232_c21: x_w232_c21 + y_w232_c21 >= 0.4164
  lat_lin_w232_c22: x_w232_c22 + y_w232_c22 >= 0.1731
  lat_lin_w232_c23: x_w232_c23 + y_w232_c23 >= 0.4446
  lat_lin_w232_c24: x_w232_c24 + y_w232_c24 >= 0.3369
  demand_w232: x_w232_c0 + x_w232_c1 + x_w232_c2 + x_w232_c3 + x_w232_c4 + x_w232_c5 + x_w232_c6 + x_w232_c7 + x_w232_c8 + x_w232_c9 + x_w232_c10 + x_w232_c11 + x_w232_c12 + x_w232_c13 + x_w232_c14 + x_w232_c15 + x_w232_c16 + x_w232_c17 + x_w232_c18 + x_w232_c19 + x_w232_c20 + x_w232_c21 + x_w232_c22 + x_w232_c23 + x_w232_c24 = 7
  lat_lin_w233_c0: x_w233_c0 + y_w233_c0 >= 0.1908
  lat_lin_w233_c1: x_w233_c1 + y_w233_c1 >= 0.3267
  lat_lin_w233_c2: x_w233_c2 + y_w233_c2 >= 0.1066
  lat_lin_w233_c3: x_w233_c3 + y_w233_c3 >= 0.3769
  lat_lin_w233_c4: x_w233_c4 + y_w233_c4 >= 0.3559
  lat_lin_w233_c5: x_w233_c5 + y_w233_c5 >= 0.0502
  lat_lin_w233_c6: x_w233_c6 + y_w233_c6 >= 0.1246
  lat_lin_w233_c7: x_w233_c7 + y_w233_c7 >= 0.3170
  lat_lin_w233_c8: x_w233_c8 + y_w233_c8 >= 0.2865
  lat_lin_w233_c9: x_w233_c9 + y_w233_c9 >= 0.2000
  lat_lin_w233_c10: x_w233_c10 + y_w233_c10 >= 0.3508
  lat_lin_w233_c11: x_w233_c11 + y_w233_c11 >= 0.0535
  lat_lin_w233_c12: x_w233_c12 + y_w233_c12 >= 0.1966
  lat_lin_w233_c13: x_w233_c13 + y_w233_c13 >= 0.2916
  lat_lin_w233_c14: x_w233_c14 + y_w233_c14 >= 0.0094
  lat_lin_w233_c15: x_w233_c15 + y_w233_c15 >= 0.2632
  lat_lin_w233_c16: x_w233_c16 + y_w233_c16 >= 0.1764
  lat_lin_w233_c17: x_w233_c17 + y_w233_c17 >= 0.3562
  lat_lin_w233_c18: x_w233_c18 + y_w233_c18 >= 0.0026
  lat_lin_w233_c19: x_w233_c19 + y_w233_c19 >= 0.2762
  lat_lin_w233_c20: x_w233_c20 + y_w233_c20 >= 0.2211
  lat_lin_w233_c21: x_w233_c21 + y_w233_c21 >= 0.0438
  lat_lin_w233_c22: x_w233_c22 + y_w233_c22 >= 0.0136
  lat_lin_w233_c23: x_w233_c23 + y_w233_c23 >= 0.2295
  lat_lin_w233_c24: x_w233_c24 + y_w233_c24 >= 0.1804
  demand_w233: x_w233_c0 + x_w233_c1 + x_w233_c2 + x_w233_c3 + x_w233_c4 + x_w233_c5 + x_w233_c6 + x_w233_c7 + x_w233_c8 + x_w233_c9 + x_w233_c10 + x_w233_c11 + x_w233_c12 + x_w233_c13 + x_w233_c14 + x_w233_c15 + x_w233_c16 + x_w233_c17 + x_w233_c18 + x_w233_c19 + x_w233_c20 + x_w233_c21 + x_w233_c22 + x_w233_c23 + x_w233_c24 = 5
  lat_lin_w234_c0: x_w234_c0 + y_w234_c0 >= 0.4998
  lat_lin_w234_c1: x_w234_c1 + y_w234_c1 >= 0.3583
  lat_lin_w234_c2: x_w234_c2 + y_w234_c2 >= 0.3136
  lat_lin_w234_c3: x_w234_c3 + y_w234_c3 >= 0.1471
  lat_lin_w234_c4: x_w234_c4 + y_w234_c4 >= 0.4288
  lat_lin_w234_c5: x_w234_c5 + y_w234_c5 >= 0.7132
  lat_lin_w234_c6: x_w234_c6 + y_w234_c6 >= 0.0145
  lat_lin_w234_c7: x_w234_c7 + y_w234_c7 >= 0.4175
  lat_lin_w234_c8: x_w234_c8 + y_w234_c8 >= 0.6691
  lat_lin_w234_c9: x_w234_c9 + y_w234_c9 >= 0.6573
  lat_lin_w234_c10: x_w234_c10 + y_w234_c10 >= 0.4423
  lat_lin_w234_c11: x_w234_c11 + y_w234_c11 >= 0.3975
  lat_lin_w234_c12: x_w234_c12 + y_w234_c12 >= 0.2136
  lat_lin_w234_c13: x_w234_c13 + y_w234_c13 >= 0.2626
  lat_lin_w234_c14: x_w234_c14 + y_w234_c14 >= 0.5054
  lat_lin_w234_c15: x_w234_c15 + y_w234_c15 >= 0.5689
  lat_lin_w234_c16: x_w234_c16 + y_w234_c16 >= 0.5156
  lat_lin_w234_c17: x_w234_c17 + y_w234_c17 >= 0.0007
  lat_lin_w234_c18: x_w234_c18 + y_w234_c18 >= 0.5959
  lat_lin_w234_c19: x_w234_c19 + y_w234_c19 >= 0.6482
  lat_lin_w234_c20: x_w234_c20 + y_w234_c20 >= 0.2809
  lat_lin_w234_c21: x_w234_c21 + y_w234_c21 >= 0.5837
  lat_lin_w234_c22: x_w234_c22 + y_w234_c22 >= 0.4599
  lat_lin_w234_c23: x_w234_c23 + y_w234_c23 >= 0.2305
  lat_lin_w234_c24: x_w234_c24 + y_w234_c24 >= 0.0753
  demand_w234: x_w234_c0 + x_w234_c1 + x_w234_c2 + x_w234_c3 + x_w234_c4 + x_w234_c5 + x_w234_c6 + x_w234_c7 + x_w234_c8 + x_w234_c9 + x_w234_c10 + x_w234_c11 + x_w234_c12 + x_w234_c13 + x_w234_c14 + x_w234_c15 + x_w234_c16 + x_w234_c17 + x_w234_c18 + x_w234_c19 + x_w234_c20 + x_w234_c21 + x_w234_c22 + x_w234_c23 + x_w234_c24 = 10
  lat_lin_w235_c0: x_w235_c0 + y_w235_c0 >= 0.3063
  lat_lin_w235_c1: x_w235_c1 + y_w235_c1 >= 0.2491
  lat_lin_w235_c2: x_w235_c2 + y_w235_c2 >= 0.1861
  lat_lin_w235_c3: x_w235_c3 + y_w235_c3 >= 0.0160
  lat_lin_w235_c4: x_w235_c4 + y_w235_c4 >= 0.1226
  lat_lin_w235_c5: x_w235_c5 + y_w235_c5 >= 0.1205
  lat_lin_w235_c6: x_w235_c6 + y_w235_c6 >= 0.1504
  lat_lin_w235_c7: x_w235_c7 + y_w235_c7 >= 0.0992
  lat_lin_w235_c8: x_w235_c8 + y_w235_c8 >= 0.1669
  lat_lin_w235_c9: x_w235_c9 + y_w235_c9 >= 0.1773
  lat_lin_w235_c10: x_w235_c10 + y_w235_c10 >= 0.1463
  lat_lin_w235_c11: x_w235_c11 + y_w235_c11 >= 0.1456
  lat_lin_w235_c12: x_w235_c12 + y_w235_c12 >= 0.3550
  lat_lin_w235_c13: x_w235_c13 + y_w235_c13 >= 0.1078
  lat_lin_w235_c14: x_w235_c14 + y_w235_c14 >= 0.0141
  lat_lin_w235_c15: x_w235_c15 + y_w235_c15 >= 0.2494
  lat_lin_w235_c16: x_w235_c16 + y_w235_c16 >= 0.1111
  lat_lin_w235_c17: x_w235_c17 + y_w235_c17 >= 0.1275
  lat_lin_w235_c18: x_w235_c18 + y_w235_c18 >= 0.2658
  lat_lin_w235_c19: x_w235_c19 + y_w235_c19 >= 0.0967
  lat_lin_w235_c20: x_w235_c20 + y_w235_c20 >= 0.2368
  lat_lin_w235_c21: x_w235_c21 + y_w235_c21 >= 0.0741
  lat_lin_w235_c22: x_w235_c22 + y_w235_c22 >= 0.0406
  lat_lin_w235_c23: x_w235_c23 + y_w235_c23 >= 0.1581
  lat_lin_w235_c24: x_w235_c24 + y_w235_c24 >= 0.2766
  demand_w235: x_w235_c0 + x_w235_c1 + x_w235_c2 + x_w235_c3 + x_w235_c4 + x_w235_c5 + x_w235_c6 + x_w235_c7 + x_w235_c8 + x_w235_c9 + x_w235_c10 + x_w235_c11 + x_w235_c12 + x_w235_c13 + x_w235_c14 + x_w235_c15 + x_w235_c16 + x_w235_c17 + x_w235_c18 + x_w235_c19 + x_w235_c20 + x_w235_c21 + x_w235_c22 + x_w235_c23 + x_w235_c24 = 4
  lat_lin_w236_c0: x_w236_c0 + y_w236_c0 >= 0.2679
  lat_lin_w236_c1: x_w236_c1 + y_w236_c1 >= 0.2744
  lat_lin_w236_c2: x_w236_c2 + y_w236_c2 >= 0.5365
  lat_lin_w236_c3: x_w236_c3 + y_w236_c3 >= 0.5532
  lat_lin_w236_c4: x_w236_c4 + y_w236_c4 >= 0.3394
  lat_lin_w236_c5: x_w236_c5 + y_w236_c5 >= 0.4835
  lat_lin_w236_c6: x_w236_c6 + y_w236_c6 >= 0.0476
  lat_lin_w236_c7: x_w236_c7 + y_w236_c7 >= 0.2664
  lat_lin_w236_c8: x_w236_c8 + y_w236_c8 >= 0.4173
  lat_lin_w236_c9: x_w236_c9 + y_w236_c9 >= 0.0438
  lat_lin_w236_c10: x_w236_c10 + y_w236_c10 >= 0.5196
  lat_lin_w236_c11: x_w236_c11 + y_w236_c11 >= 0.5173
  lat_lin_w236_c12: x_w236_c12 + y_w236_c12 >= 0.3282
  lat_lin_w236_c13: x_w236_c13 + y_w236_c13 >= 0.1299
  lat_lin_w236_c14: x_w236_c14 + y_w236_c14 >= 0.3116
  lat_lin_w236_c15: x_w236_c15 + y_w236_c15 >= 0.4543
  lat_lin_w236_c16: x_w236_c16 + y_w236_c16 >= 0.5431
  lat_lin_w236_c17: x_w236_c17 + y_w236_c17 >= 0.2211
  lat_lin_w236_c18: x_w236_c18 + y_w236_c18 >= 0.3165
  lat_lin_w236_c19: x_w236_c19 + y_w236_c19 >= 0.1290
  lat_lin_w236_c20: x_w236_c20 + y_w236_c20 >= 0.0815
  lat_lin_w236_c21: x_w236_c21 + y_w236_c21 >= 0.3813
  lat_lin_w236_c22: x_w236_c22 + y_w236_c22 >= 0.0546
  lat_lin_w236_c23: x_w236_c23 + y_w236_c23 >= 0.2683
  lat_lin_w236_c24: x_w236_c24 + y_w236_c24 >= 0.5138
  demand_w236: x_w236_c0 + x_w236_c1 + x_w236_c2 + x_w236_c3 + x_w236_c4 + x_w236_c5 + x_w236_c6 + x_w236_c7 + x_w236_c8 + x_w236_c9 + x_w236_c10 + x_w236_c11 + x_w236_c12 + x_w236_c13 + x_w236_c14 + x_w236_c15 + x_w236_c16 + x_w236_c17 + x_w236_c18 + x_w236_c19 + x_w236_c20 + x_w236_c21 + x_w236_c22 + x_w236_c23 + x_w236_c24 = 8
  lat_lin_w237_c0: x_w237_c0 + y_w237_c0 >= 0.2045
  lat_lin_w237_c1: x_w237_c1 + y_w237_c1 >= 0.0646
  lat_lin_w237_c2: x_w237_c2 + y_w237_c2 >= 0.2764
  lat_lin_w237_c3: x_w237_c3 + y_w237_c3 >= 0.0338
  lat_lin_w237_c4: x_w237_c4 + y_w237_c4 >= 0.1203
  lat_lin_w237_c5: x_w237_c5 + y_w237_c5 >= 0.1272
  lat_lin_w237_c6: x_w237_c6 + y_w237_c6 >= 0.2412
  lat_lin_w237_c7: x_w237_c7 + y_w237_c7 >= 0.3064
  lat_lin_w237_c8: x_w237_c8 + y_w237_c8 >= 0.4071
  lat_lin_w237_c9: x_w237_c9 + y_w237_c9 >= 0.3117
  lat_lin_w237_c10: x_w237_c10 + y_w237_c10 >= 0.1809
  lat_lin_w237_c11: x_w237_c11 + y_w237_c11 >= 0.1188
  lat_lin_w237_c12: x_w237_c12 + y_w237_c12 >= 0.3773
  lat_lin_w237_c13: x_w237_c13 + y_w237_c13 >= 0.3750
  lat_lin_w237_c14: x_w237_c14 + y_w237_c14 >= 0.2693
  lat_lin_w237_c15: x_w237_c15 + y_w237_c15 >= 0.3669
  lat_lin_w237_c16: x_w237_c16 + y_w237_c16 >= 0.2688
  lat_lin_w237_c17: x_w237_c17 + y_w237_c17 >= 0.3349
  lat_lin_w237_c18: x_w237_c18 + y_w237_c18 >= 0.0305
  lat_lin_w237_c19: x_w237_c19 + y_w237_c19 >= 0.3967
  lat_lin_w237_c20: x_w237_c20 + y_w237_c20 >= 0.3241
  lat_lin_w237_c21: x_w237_c21 + y_w237_c21 >= 0.4145
  lat_lin_w237_c22: x_w237_c22 + y_w237_c22 >= 0.0726
  lat_lin_w237_c23: x_w237_c23 + y_w237_c23 >= 0.2123
  lat_lin_w237_c24: x_w237_c24 + y_w237_c24 >= 0.1643
  demand_w237: x_w237_c0 + x_w237_c1 + x_w237_c2 + x_w237_c3 + x_w237_c4 + x_w237_c5 + x_w237_c6 + x_w237_c7 + x_w237_c8 + x_w237_c9 + x_w237_c10 + x_w237_c11 + x_w237_c12 + x_w237_c13 + x_w237_c14 + x_w237_c15 + x_w237_c16 + x_w237_c17 + x_w237_c18 + x_w237_c19 + x_w237_c20 + x_w237_c21 + x_w237_c22 + x_w237_c23 + x_w237_c24 = 6
  lat_lin_w238_c0: x_w238_c0 + y_w238_c0 >= 0.0399
  lat_lin_w238_c1: x_w238_c1 + y_w238_c1 >= 0.2035
  lat_lin_w238_c2: x_w238_c2 + y_w238_c2 >= 0.1596
  lat_lin_w238_c3: x_w238_c3 + y_w238_c3 >= 0.1971
  lat_lin_w238_c4: x_w238_c4 + y_w238_c4 >= 0.1632
  lat_lin_w238_c5: x_w238_c5 + y_w238_c5 >= 0.1236
  lat_lin_w238_c6: x_w238_c6 + y_w238_c6 >= 0.2177
  lat_lin_w238_c7: x_w238_c7 + y_w238_c7 >= 0.0356
  lat_lin_w238_c8: x_w238_c8 + y_w238_c8 >= 0.1083
  lat_lin_w238_c9: x_w238_c9 + y_w238_c9 >= 0.2035
  lat_lin_w238_c10: x_w238_c10 + y_w238_c10 >= 0.0373
  lat_lin_w238_c11: x_w238_c11 + y_w238_c11 >= 0.0029
  lat_lin_w238_c12: x_w238_c12 + y_w238_c12 >= 0.1512
  lat_lin_w238_c13: x_w238_c13 + y_w238_c13 >= 0.1388
  lat_lin_w238_c14: x_w238_c14 + y_w238_c14 >= 0.0089
  lat_lin_w238_c15: x_w238_c15 + y_w238_c15 >= 0.0133
  lat_lin_w238_c16: x_w238_c16 + y_w238_c16 >= 0.1394
  lat_lin_w238_c17: x_w238_c17 + y_w238_c17 >= 0.2124
  lat_lin_w238_c18: x_w238_c18 + y_w238_c18 >= 0.0036
  lat_lin_w238_c19: x_w238_c19 + y_w238_c19 >= 0.1739
  lat_lin_w238_c20: x_w238_c20 + y_w238_c20 >= 0.1787
  lat_lin_w238_c21: x_w238_c21 + y_w238_c21 >= 0.1185
  lat_lin_w238_c22: x_w238_c22 + y_w238_c22 >= 0.0544
  lat_lin_w238_c23: x_w238_c23 + y_w238_c23 >= 0.1027
  lat_lin_w238_c24: x_w238_c24 + y_w238_c24 >= 0.2118
  demand_w238: x_w238_c0 + x_w238_c1 + x_w238_c2 + x_w238_c3 + x_w238_c4 + x_w238_c5 + x_w238_c6 + x_w238_c7 + x_w238_c8 + x_w238_c9 + x_w238_c10 + x_w238_c11 + x_w238_c12 + x_w238_c13 + x_w238_c14 + x_w238_c15 + x_w238_c16 + x_w238_c17 + x_w238_c18 + x_w238_c19 + x_w238_c20 + x_w238_c21 + x_w238_c22 + x_w238_c23 + x_w238_c24 = 3
  lat_lin_w239_c0: x_w239_c0 + y_w239_c0 >= 0.7605
  lat_lin_w239_c1: x_w239_c1 + y_w239_c1 >= 0.4316
  lat_lin_w239_c2: x_w239_c2 + y_w239_c2 >= 0.7439
  lat_lin_w239_c3: x_w239_c3 + y_w239_c3 >= 0.5428
  lat_lin_w239_c4: x_w239_c4 + y_w239_c4 >= 0.6557
  lat_lin_w239_c5: x_w239_c5 + y_w239_c5 >= 0.0747
  lat_lin_w239_c6: x_w239_c6 + y_w239_c6 >= 0.3540
  lat_lin_w239_c7: x_w239_c7 + y_w239_c7 >= 0.5464
  lat_lin_w239_c8: x_w239_c8 + y_w239_c8 >= 0.7429
  lat_lin_w239_c9: x_w239_c9 + y_w239_c9 >= 0.2323
  lat_lin_w239_c10: x_w239_c10 + y_w239_c10 >= 0.8297
  lat_lin_w239_c11: x_w239_c11 + y_w239_c11 >= 0.5587
  lat_lin_w239_c12: x_w239_c12 + y_w239_c12 >= 0.5171
  lat_lin_w239_c13: x_w239_c13 + y_w239_c13 >= 0.7941
  lat_lin_w239_c14: x_w239_c14 + y_w239_c14 >= 0.4872
  lat_lin_w239_c15: x_w239_c15 + y_w239_c15 >= 0.8037
  lat_lin_w239_c16: x_w239_c16 + y_w239_c16 >= 0.4520
  lat_lin_w239_c17: x_w239_c17 + y_w239_c17 >= 0.4623
  lat_lin_w239_c18: x_w239_c18 + y_w239_c18 >= 0.4665
  lat_lin_w239_c19: x_w239_c19 + y_w239_c19 >= 0.2249
  lat_lin_w239_c20: x_w239_c20 + y_w239_c20 >= 0.4350
  lat_lin_w239_c21: x_w239_c21 + y_w239_c21 >= 0.4248
  lat_lin_w239_c22: x_w239_c22 + y_w239_c22 >= 0.6241
  lat_lin_w239_c23: x_w239_c23 + y_w239_c23 >= 0.4652
  lat_lin_w239_c24: x_w239_c24 + y_w239_c24 >= 0.3699
  demand_w239: x_w239_c0 + x_w239_c1 + x_w239_c2 + x_w239_c3 + x_w239_c4 + x_w239_c5 + x_w239_c6 + x_w239_c7 + x_w239_c8 + x_w239_c9 + x_w239_c10 + x_w239_c11 + x_w239_c12 + x_w239_c13 + x_w239_c14 + x_w239_c15 + x_w239_c16 + x_w239_c17 + x_w239_c18 + x_w239_c19 + x_w239_c20 + x_w239_c21 + x_w239_c22 + x_w239_c23 + x_w239_c24 = 13
  lat_lin_w240_c0: x_w240_c0 + y_w240_c0 >= 0.2229
  lat_lin_w240_c1: x_w240_c1 + y_w240_c1 >= 0.8292
  lat_lin_w240_c2: x_w240_c2 + y_w240_c2 >= 0.6422
  lat_lin_w240_c3: x_w240_c3 + y_w240_c3 >= 0.8916
  lat_lin_w240_c4: x_w240_c4 + y_w240_c4 >= 0.5123
  lat_lin_w240_c5: x_w240_c5 + y_w240_c5 >= 0.0763
  lat_lin_w240_c6: x_w240_c6 + y_w240_c6 >= 0.2424
  lat_lin_w240_c7: x_w240_c7 + y_w240_c7 >= 0.2446
  lat_lin_w240_c8: x_w240_c8 + y_w240_c8 >= 0.3227
  lat_lin_w240_c9: x_w240_c9 + y_w240_c9 >= 0.6952
  lat_lin_w240_c10: x_w240_c10 + y_w240_c10 >= 0.2708
  lat_lin_w240_c11: x_w240_c11 + y_w240_c11 >= 0.1616
  lat_lin_w240_c12: x_w240_c12 + y_w240_c12 >= 0.0946
  lat_lin_w240_c13: x_w240_c13 + y_w240_c13 >= 0.2165
  lat_lin_w240_c14: x_w240_c14 + y_w240_c14 >= 0.8258
  lat_lin_w240_c15: x_w240_c15 + y_w240_c15 >= 0.1483
  lat_lin_w240_c16: x_w240_c16 + y_w240_c16 >= 0.6167
  lat_lin_w240_c17: x_w240_c17 + y_w240_c17 >= 0.1961
  lat_lin_w240_c18: x_w240_c18 + y_w240_c18 >= 0.4731
  lat_lin_w240_c19: x_w240_c19 + y_w240_c19 >= 0.2361
  lat_lin_w240_c20: x_w240_c20 + y_w240_c20 >= 0.6391
  lat_lin_w240_c21: x_w240_c21 + y_w240_c21 >= 0.0616
  lat_lin_w240_c22: x_w240_c22 + y_w240_c22 >= 0.4717
  lat_lin_w240_c23: x_w240_c23 + y_w240_c23 >= 0.1570
  lat_lin_w240_c24: x_w240_c24 + y_w240_c24 >= 0.7517
  demand_w240: x_w240_c0 + x_w240_c1 + x_w240_c2 + x_w240_c3 + x_w240_c4 + x_w240_c5 + x_w240_c6 + x_w240_c7 + x_w240_c8 + x_w240_c9 + x_w240_c10 + x_w240_c11 + x_w240_c12 + x_w240_c13 + x_w240_c14 + x_w240_c15 + x_w240_c16 + x_w240_c17 + x_w240_c18 + x_w240_c19 + x_w240_c20 + x_w240_c21 + x_w240_c22 + x_w240_c23 + x_w240_c24 = 10
  lat_lin_w241_c0: x_w241_c0 + y_w241_c0 >= 0.4097
  lat_lin_w241_c1: x_w241_c1 + y_w241_c1 >= 0.1499
  lat_lin_w241_c2: x_w241_c2 + y_w241_c2 >= 0.3364
  lat_lin_w241_c3: x_w241_c3 + y_w241_c3 >= 0.0039
  lat_lin_w241_c4: x_w241_c4 + y_w241_c4 >= 0.3559
  lat_lin_w241_c5: x_w241_c5 + y_w241_c5 >= 0.0827
  lat_lin_w241_c6: x_w241_c6 + y_w241_c6 >= 0.0042
  lat_lin_w241_c7: x_w241_c7 + y_w241_c7 >= 0.3363
  lat_lin_w241_c8: x_w241_c8 + y_w241_c8 >= 0.3609
  lat_lin_w241_c9: x_w241_c9 + y_w241_c9 >= 0.3183
  lat_lin_w241_c10: x_w241_c10 + y_w241_c10 >= 0.0385
  lat_lin_w241_c11: x_w241_c11 + y_w241_c11 >= 0.1233
  lat_lin_w241_c12: x_w241_c12 + y_w241_c12 >= 0.0537
  lat_lin_w241_c13: x_w241_c13 + y_w241_c13 >= 0.1992
  lat_lin_w241_c14: x_w241_c14 + y_w241_c14 >= 0.1317
  lat_lin_w241_c15: x_w241_c15 + y_w241_c15 >= 0.1181
  lat_lin_w241_c16: x_w241_c16 + y_w241_c16 >= 0.2534
  lat_lin_w241_c17: x_w241_c17 + y_w241_c17 >= 0.2880
  lat_lin_w241_c18: x_w241_c18 + y_w241_c18 >= 0.2480
  lat_lin_w241_c19: x_w241_c19 + y_w241_c19 >= 0.2115
  lat_lin_w241_c20: x_w241_c20 + y_w241_c20 >= 0.3432
  lat_lin_w241_c21: x_w241_c21 + y_w241_c21 >= 0.1376
  lat_lin_w241_c22: x_w241_c22 + y_w241_c22 >= 0.1387
  lat_lin_w241_c23: x_w241_c23 + y_w241_c23 >= 0.1886
  lat_lin_w241_c24: x_w241_c24 + y_w241_c24 >= 0.1685
  demand_w241: x_w241_c0 + x_w241_c1 + x_w241_c2 + x_w241_c3 + x_w241_c4 + x_w241_c5 + x_w241_c6 + x_w241_c7 + x_w241_c8 + x_w241_c9 + x_w241_c10 + x_w241_c11 + x_w241_c12 + x_w241_c13 + x_w241_c14 + x_w241_c15 + x_w241_c16 + x_w241_c17 + x_w241_c18 + x_w241_c19 + x_w241_c20 + x_w241_c21 + x_w241_c22 + x_w241_c23 + x_w241_c24 = 5
  lat_lin_w242_c0: x_w242_c0 + y_w242_c0 >= 0.7407
  lat_lin_w242_c1: x_w242_c1 + y_w242_c1 >= 0.2590
  lat_lin_w242_c2: x_w242_c2 + y_w242_c2 >= 0.2385
  lat_lin_w242_c3: x_w242_c3 + y_w242_c3 >= 0.6284
  lat_lin_w242_c4: x_w242_c4 + y_w242_c4 >= 0.7764
  lat_lin_w242_c5: x_w242_c5 + y_w242_c5 >= 0.2577
  lat_lin_w242_c6: x_w242_c6 + y_w242_c6 >= 0.3244
  lat_lin_w242_c7: x_w242_c7 + y_w242_c7 >= 0.2260
  lat_lin_w242_c8: x_w242_c8 + y_w242_c8 >= 0.1678
  lat_lin_w242_c9: x_w242_c9 + y_w242_c9 >= 0.3969
  lat_lin_w242_c10: x_w242_c10 + y_w242_c10 >= 0.5390
  lat_lin_w242_c11: x_w242_c11 + y_w242_c11 >= 0.3747
  lat_lin_w242_c12: x_w242_c12 + y_w242_c12 >= 0.9072
  lat_lin_w242_c13: x_w242_c13 + y_w242_c13 >= 0.2645
  lat_lin_w242_c14: x_w242_c14 + y_w242_c14 >= 0.9197
  lat_lin_w242_c15: x_w242_c15 + y_w242_c15 >= 0.7055
  lat_lin_w242_c16: x_w242_c16 + y_w242_c16 >= 0.8670
  lat_lin_w242_c17: x_w242_c17 + y_w242_c17 >= 0.3531
  lat_lin_w242_c18: x_w242_c18 + y_w242_c18 >= 0.0274
  lat_lin_w242_c19: x_w242_c19 + y_w242_c19 >= 0.2803
  lat_lin_w242_c20: x_w242_c20 + y_w242_c20 >= 0.5029
  lat_lin_w242_c21: x_w242_c21 + y_w242_c21 >= 0.4855
  lat_lin_w242_c22: x_w242_c22 + y_w242_c22 >= 0.7157
  lat_lin_w242_c23: x_w242_c23 + y_w242_c23 >= 0.8034
  lat_lin_w242_c24: x_w242_c24 + y_w242_c24 >= 0.2382
  demand_w242: x_w242_c0 + x_w242_c1 + x_w242_c2 + x_w242_c3 + x_w242_c4 + x_w242_c5 + x_w242_c6 + x_w242_c7 + x_w242_c8 + x_w242_c9 + x_w242_c10 + x_w242_c11 + x_w242_c12 + x_w242_c13 + x_w242_c14 + x_w242_c15 + x_w242_c16 + x_w242_c17 + x_w242_c18 + x_w242_c19 + x_w242_c20 + x_w242_c21 + x_w242_c22 + x_w242_c23 + x_w242_c24 = 12
  lat_lin_w243_c0: x_w243_c0 + y_w243_c0 >= 0.1366
  lat_lin_w243_c1: x_w243_c1 + y_w243_c1 >= 0.2779
  lat_lin_w243_c2: x_w243_c2 + y_w243_c2 >= 0.0189
  lat_lin_w243_c3: x_w243_c3 + y_w243_c3 >= 0.5733
  lat_lin_w243_c4: x_w243_c4 + y_w243_c4 >= 0.5743
  lat_lin_w243_c5: x_w243_c5 + y_w243_c5 >= 0.1423
  lat_lin_w243_c6: x_w243_c6 + y_w243_c6 >= 0.6464
  lat_lin_w243_c7: x_w243_c7 + y_w243_c7 >= 0.2331
  lat_lin_w243_c8: x_w243_c8 + y_w243_c8 >= 0.6840
  lat_lin_w243_c9: x_w243_c9 + y_w243_c9 >= 0.1694
  lat_lin_w243_c10: x_w243_c10 + y_w243_c10 >= 0.5165
  lat_lin_w243_c11: x_w243_c11 + y_w243_c11 >= 0.2944
  lat_lin_w243_c12: x_w243_c12 + y_w243_c12 >= 0.5450
  lat_lin_w243_c13: x_w243_c13 + y_w243_c13 >= 0.6923
  lat_lin_w243_c14: x_w243_c14 + y_w243_c14 >= 0.1399
  lat_lin_w243_c15: x_w243_c15 + y_w243_c15 >= 0.1585
  lat_lin_w243_c16: x_w243_c16 + y_w243_c16 >= 0.6160
  lat_lin_w243_c17: x_w243_c17 + y_w243_c17 >= 0.0881
  lat_lin_w243_c18: x_w243_c18 + y_w243_c18 >= 0.0772
  lat_lin_w243_c19: x_w243_c19 + y_w243_c19 >= 0.5019
  lat_lin_w243_c20: x_w243_c20 + y_w243_c20 >= 0.1461
  lat_lin_w243_c21: x_w243_c21 + y_w243_c21 >= 0.4191
  lat_lin_w243_c22: x_w243_c22 + y_w243_c22 >= 0.6191
  lat_lin_w243_c23: x_w243_c23 + y_w243_c23 >= 0.6999
  lat_lin_w243_c24: x_w243_c24 + y_w243_c24 >= 0.0298
  demand_w243: x_w243_c0 + x_w243_c1 + x_w243_c2 + x_w243_c3 + x_w243_c4 + x_w243_c5 + x_w243_c6 + x_w243_c7 + x_w243_c8 + x_w243_c9 + x_w243_c10 + x_w243_c11 + x_w243_c12 + x_w243_c13 + x_w243_c14 + x_w243_c15 + x_w243_c16 + x_w243_c17 + x_w243_c18 + x_w243_c19 + x_w243_c20 + x_w243_c21 + x_w243_c22 + x_w243_c23 + x_w243_c24 = 9
  lat_lin_w244_c0: x_w244_c0 + y_w244_c0 >= 0.5802
  lat_lin_w244_c1: x_w244_c1 + y_w244_c1 >= 0.9315
  lat_lin_w244_c2: x_w244_c2 + y_w244_c2 >= 0.1894
  lat_lin_w244_c3: x_w244_c3 + y_w244_c3 >= 0.9364
  lat_lin_w244_c4: x_w244_c4 + y_w244_c4 >= 0.0142
  lat_lin_w244_c5: x_w244_c5 + y_w244_c5 >= 0.7263
  lat_lin_w244_c6: x_w244_c6 + y_w244_c6 >= 0.3896
  lat_lin_w244_c7: x_w244_c7 + y_w244_c7 >= 0.2263
  lat_lin_w244_c8: x_w244_c8 + y_w244_c8 >= 0.6390
  lat_lin_w244_c9: x_w244_c9 + y_w244_c9 >= 0.3165
  lat_lin_w244_c10: x_w244_c10 + y_w244_c10 >= 0.6390
  lat_lin_w244_c11: x_w244_c11 + y_w244_c11 >= 0.5959
  lat_lin_w244_c12: x_w244_c12 + y_w244_c12 >= 0.0791
  lat_lin_w244_c13: x_w244_c13 + y_w244_c13 >= 0.1176
  lat_lin_w244_c14: x_w244_c14 + y_w244_c14 >= 0.7398
  lat_lin_w244_c15: x_w244_c15 + y_w244_c15 >= 0.9239
  lat_lin_w244_c16: x_w244_c16 + y_w244_c16 >= 0.7573
  lat_lin_w244_c17: x_w244_c17 + y_w244_c17 >= 0.8684
  lat_lin_w244_c18: x_w244_c18 + y_w244_c18 >= 0.6489
  lat_lin_w244_c19: x_w244_c19 + y_w244_c19 >= 0.5073
  lat_lin_w244_c20: x_w244_c20 + y_w244_c20 >= 0.8168
  lat_lin_w244_c21: x_w244_c21 + y_w244_c21 >= 0.5808
  lat_lin_w244_c22: x_w244_c22 + y_w244_c22 >= 0.5645
  lat_lin_w244_c23: x_w244_c23 + y_w244_c23 >= 0.0671
  lat_lin_w244_c24: x_w244_c24 + y_w244_c24 >= 0.1442
  demand_w244: x_w244_c0 + x_w244_c1 + x_w244_c2 + x_w244_c3 + x_w244_c4 + x_w244_c5 + x_w244_c6 + x_w244_c7 + x_w244_c8 + x_w244_c9 + x_w244_c10 + x_w244_c11 + x_w244_c12 + x_w244_c13 + x_w244_c14 + x_w244_c15 + x_w244_c16 + x_w244_c17 + x_w244_c18 + x_w244_c19 + x_w244_c20 + x_w244_c21 + x_w244_c22 + x_w244_c23 + x_w244_c24 = 13
  lat_lin_w245_c0: x_w245_c0 + y_w245_c0 >= 0.0423
  lat_lin_w245_c1: x_w245_c1 + y_w245_c1 >= 0.0585
  lat_lin_w245_c2: x_w245_c2 + y_w245_c2 >= 0.3266
  lat_lin_w245_c3: x_w245_c3 + y_w245_c3 >= 0.2937
  lat_lin_w245_c4: x_w245_c4 + y_w245_c4 >= 0.0977
  lat_lin_w245_c5: x_w245_c5 + y_w245_c5 >= 0.1737
  lat_lin_w245_c6: x_w245_c6 + y_w245_c6 >= 0.2784
  lat_lin_w245_c7: x_w245_c7 + y_w245_c7 >= 0.1866
  lat_lin_w245_c8: x_w245_c8 + y_w245_c8 >= 0.2723
  lat_lin_w245_c9: x_w245_c9 + y_w245_c9 >= 0.0322
  lat_lin_w245_c10: x_w245_c10 + y_w245_c10 >= 0.3086
  lat_lin_w245_c11: x_w245_c11 + y_w245_c11 >= 0.0417
  lat_lin_w245_c12: x_w245_c12 + y_w245_c12 >= 0.0076
  lat_lin_w245_c13: x_w245_c13 + y_w245_c13 >= 0.1615
  lat_lin_w245_c14: x_w245_c14 + y_w245_c14 >= 0.0702
  lat_lin_w245_c15: x_w245_c15 + y_w245_c15 >= 0.0936
  lat_lin_w245_c16: x_w245_c16 + y_w245_c16 >= 0.3401
  lat_lin_w245_c17: x_w245_c17 + y_w245_c17 >= 0.1759
  lat_lin_w245_c18: x_w245_c18 + y_w245_c18 >= 0.1257
  lat_lin_w245_c19: x_w245_c19 + y_w245_c19 >= 0.0636
  lat_lin_w245_c20: x_w245_c20 + y_w245_c20 >= 0.1200
  lat_lin_w245_c21: x_w245_c21 + y_w245_c21 >= 0.0914
  lat_lin_w245_c22: x_w245_c22 + y_w245_c22 >= 0.1636
  lat_lin_w245_c23: x_w245_c23 + y_w245_c23 >= 0.2509
  lat_lin_w245_c24: x_w245_c24 + y_w245_c24 >= 0.2238
  demand_w245: x_w245_c0 + x_w245_c1 + x_w245_c2 + x_w245_c3 + x_w245_c4 + x_w245_c5 + x_w245_c6 + x_w245_c7 + x_w245_c8 + x_w245_c9 + x_w245_c10 + x_w245_c11 + x_w245_c12 + x_w245_c13 + x_w245_c14 + x_w245_c15 + x_w245_c16 + x_w245_c17 + x_w245_c18 + x_w245_c19 + x_w245_c20 + x_w245_c21 + x_w245_c22 + x_w245_c23 + x_w245_c24 = 4
  lat_lin_w246_c0: x_w246_c0 + y_w246_c0 >= 0.2817
  lat_lin_w246_c1: x_w246_c1 + y_w246_c1 >= 0.3829
  lat_lin_w246_c2: x_w246_c2 + y_w246_c2 >= 0.1417
  lat_lin_w246_c3: x_w246_c3 + y_w246_c3 >= 0.0859
  lat_lin_w246_c4: x_w246_c4 + y_w246_c4 >= 0.1146
  lat_lin_w246_c5: x_w246_c5 + y_w246_c5 >= 0.3490
  lat_lin_w246_c6: x_w246_c6 + y_w246_c6 >= 0.2279
  lat_lin_w246_c7: x_w246_c7 + y_w246_c7 >= 0.2972
  lat_lin_w246_c8: x_w246_c8 + y_w246_c8 >= 0.1803
  lat_lin_w246_c9: x_w246_c9 + y_w246_c9 >= 0.0266
  lat_lin_w246_c10: x_w246_c10 + y_w246_c10 >= 0.3243
  lat_lin_w246_c11: x_w246_c11 + y_w246_c11 >= 0.0383
  lat_lin_w246_c12: x_w246_c12 + y_w246_c12 >= 0.1534
  lat_lin_w246_c13: x_w246_c13 + y_w246_c13 >= 0.1265
  lat_lin_w246_c14: x_w246_c14 + y_w246_c14 >= 0.0823
  lat_lin_w246_c15: x_w246_c15 + y_w246_c15 >= 0.2768
  lat_lin_w246_c16: x_w246_c16 + y_w246_c16 >= 0.1243
  lat_lin_w246_c17: x_w246_c17 + y_w246_c17 >= 0.1893
  lat_lin_w246_c18: x_w246_c18 + y_w246_c18 >= 0.2886
  lat_lin_w246_c19: x_w246_c19 + y_w246_c19 >= 0.2902
  lat_lin_w246_c20: x_w246_c20 + y_w246_c20 >= 0.0841
  lat_lin_w246_c21: x_w246_c21 + y_w246_c21 >= 0.1142
  lat_lin_w246_c22: x_w246_c22 + y_w246_c22 >= 0.2252
  lat_lin_w246_c23: x_w246_c23 + y_w246_c23 >= 0.3734
  lat_lin_w246_c24: x_w246_c24 + y_w246_c24 >= 0.2211
  demand_w246: x_w246_c0 + x_w246_c1 + x_w246_c2 + x_w246_c3 + x_w246_c4 + x_w246_c5 + x_w246_c6 + x_w246_c7 + x_w246_c8 + x_w246_c9 + x_w246_c10 + x_w246_c11 + x_w246_c12 + x_w246_c13 + x_w246_c14 + x_w246_c15 + x_w246_c16 + x_w246_c17 + x_w246_c18 + x_w246_c19 + x_w246_c20 + x_w246_c21 + x_w246_c22 + x_w246_c23 + x_w246_c24 = 5
  lat_lin_w247_c0: x_w247_c0 + y_w247_c0 >= 0.0372
  lat_lin_w247_c1: x_w247_c1 + y_w247_c1 >= 0.2996
  lat_lin_w247_c2: x_w247_c2 + y_w247_c2 >= 0.9221
  lat_lin_w247_c3: x_w247_c3 + y_w247_c3 >= 0.5670
  lat_lin_w247_c4: x_w247_c4 + y_w247_c4 >= 0.7775
  lat_lin_w247_c5: x_w247_c5 + y_w247_c5 >= 0.3214
  lat_lin_w247_c6: x_w247_c6 + y_w247_c6 >= 0.1859
  lat_lin_w247_c7: x_w247_c7 + y_w247_c7 >= 0.4106
  lat_lin_w247_c8: x_w247_c8 + y_w247_c8 >= 0.2104
  lat_lin_w247_c9: x_w247_c9 + y_w247_c9 >= 0.4643
  lat_lin_w247_c10: x_w247_c10 + y_w247_c10 >= 0.6534
  lat_lin_w247_c11: x_w247_c11 + y_w247_c11 >= 1.0642
  lat_lin_w247_c12: x_w247_c12 + y_w247_c12 >= 0.8463
  lat_lin_w247_c13: x_w247_c13 + y_w247_c13 >= 0.2489
  lat_lin_w247_c14: x_w247_c14 + y_w247_c14 >= 0.4808
  lat_lin_w247_c15: x_w247_c15 + y_w247_c15 >= 1.0570
  lat_lin_w247_c16: x_w247_c16 + y_w247_c16 >= 0.6007
  lat_lin_w247_c17: x_w247_c17 + y_w247_c17 >= 0.4249
  lat_lin_w247_c18: x_w247_c18 + y_w247_c18 >= 0.1972
  lat_lin_w247_c19: x_w247_c19 + y_w247_c19 >= 0.5598
  lat_lin_w247_c20: x_w247_c20 + y_w247_c20 >= 1.1071
  lat_lin_w247_c21: x_w247_c21 + y_w247_c21 >= 0.7506
  lat_lin_w247_c22: x_w247_c22 + y_w247_c22 >= 0.3091
  lat_lin_w247_c23: x_w247_c23 + y_w247_c23 >= 0.4835
  lat_lin_w247_c24: x_w247_c24 + y_w247_c24 >= 1.0204
  demand_w247: x_w247_c0 + x_w247_c1 + x_w247_c2 + x_w247_c3 + x_w247_c4 + x_w247_c5 + x_w247_c6 + x_w247_c7 + x_w247_c8 + x_w247_c9 + x_w247_c10 + x_w247_c11 + x_w247_c12 + x_w247_c13 + x_w247_c14 + x_w247_c15 + x_w247_c16 + x_w247_c17 + x_w247_c18 + x_w247_c19 + x_w247_c20 + x_w247_c21 + x_w247_c22 + x_w247_c23 + x_w247_c24 = 14
  lat_lin_w248_c0: x_w248_c0 + y_w248_c0 >= 0.3415
  lat_lin_w248_c1: x_w248_c1 + y_w248_c1 >= 0.0761
  lat_lin_w248_c2: x_w248_c2 + y_w248_c2 >= 0.3928
  lat_lin_w248_c3: x_w248_c3 + y_w248_c3 >= 0.0688
  lat_lin_w248_c4: x_w248_c4 + y_w248_c4 >= 0.0676
  lat_lin_w248_c5: x_w248_c5 + y_w248_c5 >= 0.3223
  lat_lin_w248_c6: x_w248_c6 + y_w248_c6 >= 0.3639
  lat_lin_w248_c7: x_w248_c7 + y_w248_c7 >= 0.0527
  lat_lin_w248_c8: x_w248_c8 + y_w248_c8 >= 0.3640
  lat_lin_w248_c9: x_w248_c9 + y_w248_c9 >= 0.1149
  lat_lin_w248_c10: x_w248_c10 + y_w248_c10 >= 0.1442
  lat_lin_w248_c11: x_w248_c11 + y_w248_c11 >= 0.0948
  lat_lin_w248_c12: x_w248_c12 + y_w248_c12 >= 0.4328
  lat_lin_w248_c13: x_w248_c13 + y_w248_c13 >= 0.0214
  lat_lin_w248_c14: x_w248_c14 + y_w248_c14 >= 0.0942
  lat_lin_w248_c15: x_w248_c15 + y_w248_c15 >= 0.5340
  lat_lin_w248_c16: x_w248_c16 + y_w248_c16 >= 0.0301
  lat_lin_w248_c17: x_w248_c17 + y_w248_c17 >= 0.4506
  lat_lin_w248_c18: x_w248_c18 + y_w248_c18 >= 0.0590
  lat_lin_w248_c19: x_w248_c19 + y_w248_c19 >= 0.5023
  lat_lin_w248_c20: x_w248_c20 + y_w248_c20 >= 0.3139
  lat_lin_w248_c21: x_w248_c21 + y_w248_c21 >= 0.1597
  lat_lin_w248_c22: x_w248_c22 + y_w248_c22 >= 0.1209
  lat_lin_w248_c23: x_w248_c23 + y_w248_c23 >= 0.4059
  lat_lin_w248_c24: x_w248_c24 + y_w248_c24 >= 0.4715
  demand_w248: x_w248_c0 + x_w248_c1 + x_w248_c2 + x_w248_c3 + x_w248_c4 + x_w248_c5 + x_w248_c6 + x_w248_c7 + x_w248_c8 + x_w248_c9 + x_w248_c10 + x_w248_c11 + x_w248_c12 + x_w248_c13 + x_w248_c14 + x_w248_c15 + x_w248_c16 + x_w248_c17 + x_w248_c18 + x_w248_c19 + x_w248_c20 + x_w248_c21 + x_w248_c22 + x_w248_c23 + x_w248_c24 = 6
  lat_lin_w249_c0: x_w249_c0 + y_w249_c0 >= 0.2744
  lat_lin_w249_c1: x_w249_c1 + y_w249_c1 >= 0.0350
  lat_lin_w249_c2: x_w249_c2 + y_w249_c2 >= 0.0445
  lat_lin_w249_c3: x_w249_c3 + y_w249_c3 >= 0.0342
  lat_lin_w249_c4: x_w249_c4 + y_w249_c4 >= 0.2908
  lat_lin_w249_c5: x_w249_c5 + y_w249_c5 >= 0.1937
  lat_lin_w249_c6: x_w249_c6 + y_w249_c6 >= 0.3043
  lat_lin_w249_c7: x_w249_c7 + y_w249_c7 >= 0.3674
  lat_lin_w249_c8: x_w249_c8 + y_w249_c8 >= 0.0161
  lat_lin_w249_c9: x_w249_c9 + y_w249_c9 >= 0.3760
  lat_lin_w249_c10: x_w249_c10 + y_w249_c10 >= 0.2955
  lat_lin_w249_c11: x_w249_c11 + y_w249_c11 >= 0.3652
  lat_lin_w249_c12: x_w249_c12 + y_w249_c12 >= 0.2680
  lat_lin_w249_c13: x_w249_c13 + y_w249_c13 >= 0.1776
  lat_lin_w249_c14: x_w249_c14 + y_w249_c14 >= 0.1446
  lat_lin_w249_c15: x_w249_c15 + y_w249_c15 >= 0.1592
  lat_lin_w249_c16: x_w249_c16 + y_w249_c16 >= 0.1798
  lat_lin_w249_c17: x_w249_c17 + y_w249_c17 >= 0.0442
  lat_lin_w249_c18: x_w249_c18 + y_w249_c18 >= 0.1700
  lat_lin_w249_c19: x_w249_c19 + y_w249_c19 >= 0.2585
  lat_lin_w249_c20: x_w249_c20 + y_w249_c20 >= 0.3291
  lat_lin_w249_c21: x_w249_c21 + y_w249_c21 >= 0.1040
  lat_lin_w249_c22: x_w249_c22 + y_w249_c22 >= 0.0013
  lat_lin_w249_c23: x_w249_c23 + y_w249_c23 >= 0.2397
  lat_lin_w249_c24: x_w249_c24 + y_w249_c24 >= 0.3268
  demand_w249: x_w249_c0 + x_w249_c1 + x_w249_c2 + x_w249_c3 + x_w249_c4 + x_w249_c5 + x_w249_c6 + x_w249_c7 + x_w249_c8 + x_w249_c9 + x_w249_c10 + x_w249_c11 + x_w249_c12 + x_w249_c13 + x_w249_c14 + x_w249_c15 + x_w249_c16 + x_w249_c17 + x_w249_c18 + x_w249_c19 + x_w249_c20 + x_w249_c21 + x_w249_c22 + x_w249_c23 + x_w249_c24 = 5
  sum_cost: 0.6224 x_w0_c0 + 6.0330 x_w0_c1 + 7.2906 x_w0_c2 + 7.7094 x_w0_c3 + 6.6642 x_w0_c4 + 3.4631 x_w0_c5 + 3.4448 x_w0_c6 + 4.6507 x_w0_c7 + 6.1245 x_w0_c8 + 3.3277 x_w0_c9 + 4.8389 x_w0_c10 + 7.2703 x_w0_c11 + 6.5954 x_w0_c12 + 3.9485 x_w0_c13 + 6.0711 x_w0_c14 + 4.6447 x_w0_c15 + 3.9702 x_w0_c16 + 4.0222 x_w0_c17 + 5.9315 x_w0_c18 + 5.6099 x_w0_c19 + 5.8086 x_w0_c20 + 4.5924 x_w0_c21 + 3.9475 x_w0_c22 + 3.5081 x_w0_c23 + 7.2866 x_w0_c24 + 1.7526 x_w1_c0 + 3.2427 x_w1_c1 + 4.4054 x_w1_c2 + 7.1025 x_w1_c3 + 6.3941 x_w1_c4 + 6.0877 x_w1_c5 + 5.0621 x_w1_c6 + 4.7805 x_w1_c7 + 3.1902 x_w1_c8 + 3.5184 x_w1_c9 + 5.0367 x_w1_c10 + 4.7630 x_w1_c11 + 6.0015 x_w1_c12 + 7.9501 x_w1_c13 + 7.9063 x_w1_c14 + 4.8922 x_w1_c15 + 3.5124 x_w1_c16 + 3.9544 x_w1_c17 + 7.8506 x_w1_c18 + 5.2231 x_w1_c19 + 4.4061 x_w1_c20 + 5.0326 x_w1_c21 + 5.6461 x_w1_c22 + 6.8103 x_w1_c23 + 7.2316 x_w1_c24 + 1.6685 x_w2_c0 + 4.9266 x_w2_c1 + 7.7998 x_w2_c2 + 6.8241 x_w2_c3 + 4.9693 x_w2_c4 + 4.7490 x_w2_c5 + 6.9224 x_w2_c6 + 3.7247 x_w2_c7 + 3.5774 x_w2_c8 + 6.5100 x_w2_c9 + 6.0510 x_w2_c10 + 4.8161 x_w2_c11 + 4.7674 x_w2_c12 + 7.1555 x_w2_c13 + 7.2870 x_w2_c14 + 4.7211 x_w2_c15 + 7.6485 x_w2_c16 + 4.4821 x_w2_c17 + 4.9447 x_w2_c18 + 4.7768 x_w2_c19 + 6.1090 x_w2_c20 + 5.0870 x_w2_c21 + 3.1376 x_w2_c22 + 6.0582 x_w2_c23 + 5.1804 x_w2_c24 + 1.7400 x_w3_c0 + 7.7029 x_w3_c1 + 5.4470 x_w3_c2 + 6.5134 x_w3_c3 + 6.9713 x_w3_c4 + 6.2764 x_w3_c5 + 4.7574 x_w3_c6 + 5.9995 x_w3_c7 + 4.2557 x_w3_c8 + 4.9351 x_w3_c9 + 6.3651 x_w3_c10 + 6.7981 x_w3_c11 + 6.6561 x_w3_c12 + 5.8412 x_w3_c13 + 3.3889 x_w3_c14 + 3.3227 x_w3_c15 + 3.1294 x_w3_c16 + 6.5717 x_w3_c17 + 6.6931 x_w3_c18 + 4.7122 x_w3_c19 + 5.7170 x_w3_c20 + 7.5327 x_w3_c21 + 3.2449 x_w3_c22 + 4.5098 x_w3_c23 + 7.6889 x_w3_c24 + 0.8552 x_w4_c0 + 6.2122 x_w4_c1 + 4.3990 x_w4_c2 + 6.2855 x_w4_c3 + 6.5207 x_w4_c4 + 5.2949 x_w4_c5 + 3.3847 x_w4_c6 + 6.2941 x_w4_c7 + 5.9770 x_w4_c8 + 7.6857 x_w4_c9 + 5.1434 x_w4_c10 + 7.2867 x_w4_c11 + 4.8550 x_w4_c12 + 6.0318 x_w4_c13 + 7.2802 x_w4_c14 + 5.8616 x_w4_c15 + 4.9456 x_w4_c16 + 6.0613 x_w4_c17 + 3.9648 x_w4_c18 + 5.5832 x_w4_c19 + 4.0619 x_w4_c20 + 5.4525 x_w4_c21 + 4.3303 x_w4_c22 + 4.6298 x_w4_c23 + 7.2256 x_w4_c24 + 1.0538 x_w5_c0 + 6.5446 x_w5_c1 + 5.7547 x_w5_c2 + 3.6136 x_w5_c3 + 5.4553 x_w5_c4 + 4.8867 x_w5_c5 + 4.1365 x_w5_c6 + 7.6501 x_w5_c7 + 3.7713 x_w5_c8 + 5.0918 x_w5_c9 + 6.6135 x_w5_c10 + 6.8980 x_w5_c11 + 4.8183 x_w5_c12 + 3.5467 x_w5_c13 + 4.3203 x_w5_c14 + 7.0842 x_w5_c15 + 3.1588 x_w5_c16 + 4.0138 x_w5_c17 + 3.5291 x_w5_c18 + 3.5138 x_w5_c19 + 5.8794 x_w5_c20 + 4.1119 x_w5_c21 + 4.6802 x_w5_c22 + 5.9174 x_w5_c23 + 5.5766 x_w5_c24 + 1.2971 x_w6_c0 + 7.9728 x_w6_c1 + 3.5815 x_w6_c2 + 6.2205 x_w6_c3 + 4.0735 x_w6_c4 + 7.5264 x_w6_c5 + 5.0993 x_w6_c6 + 7.2467 x_w6_c7 + 4.8030 x_w6_c8 + 3.8315 x_w6_c9 + 4.2154 x_w6_c10 + 5.7130 x_w6_c11 + 3.2936 x_w6_c12 + 7.5933 x_w6_c13 + 7.1075 x_w6_c14 + 6.6783 x_w6_c15 + 3.4985 x_w6_c16 + 7.5255 x_w6_c17 + 4.6546 x_w6_c18 + 3.9326 x_w6_c19 + 7.0320 x_w6_c20 + 4.5246 x_w6_c21 + 4.9085 x_w6_c22 + 6.1193 x_w6_c23 + 4.1493 x_w6_c24 + 0.5678 x_w7_c0 + 7.5236 x_w7_c1 + 6.7303 x_w7_c2 + 7.1567 x_w7_c3 + 5.5247 x_w7_c4 + 5.8836 x_w7_c5 + 3.0599 x_w7_c6 + 7.0767 x_w7_c7 + 6.8363 x_w7_c8 + 5.6640 x_w7_c9 + 5.1985 x_w7_c10 + 6.6888 x_w7_c11 + 6.8114 x_w7_c12 + 5.1297 x_w7_c13 + 4.4368 x_w7_c14 + 7.6707 x_w7_c15 + 7.1461 x_w7_c16 + 3.8232 x_w7_c17 + 5.0242 x_w7_c18 + 5.3014 x_w7_c19 + 6.4411 x_w7_c20 + 7.6941 x_w7_c21 + 4.7717 x_w7_c22 + 7.2792 x_w7_c23 + 4.3908 x_w7_c24 + 1.2510 x_w8_c0 + 4.5194 x_w8_c1 + 5.9747 x_w8_c2 + 7.2056 x_w8_c3 + 7.7972 x_w8_c4 + 3.0987 x_w8_c5 + 4.5052 x_w8_c6 + 3.3423 x_w8_c7 + 6.2805 x_w8_c8 + 7.2717 x_w8_c9 + 6.7428 x_w8_c10 + 3.8351 x_w8_c11 + 3.9964 x_w8_c12 + 3.2520 x_w8_c13 + 5.1697 x_w8_c14 + 5.7273 x_w8_c15 + 6.8909 x_w8_c16 + 3.3890 x_w8_c17 + 7.0566 x_w8_c18 + 3.6050 x_w8_c19 + 5.7703 x_w8_c20 + 6.6334 x_w8_c21 + 5.9123 x_w8_c22 + 3.3532 x_w8_c23 + 4.7441 x_w8_c24 + 1.4761 x_w9_c0 + 7.1765 x_w9_c1 + 6.9149 x_w9_c2 + 4.5535 x_w9_c3 + 5.7644 x_w9_c4 + 3.4983 x_w9_c5 + 3.8481 x_w9_c6 + 3.7156 x_w9_c7 + 6.1337 x_w9_c8 + 4.8299 x_w9_c9 + 6.8221 x_w9_c10 + 6.9110 x_w9_c11 + 4.1444 x_w9_c12 + 6.1532 x_w9_c13 + 7.0050 x_w9_c14 + 5.3224 x_w9_c15 + 4.0458 x_w9_c16 + 3.3040 x_w9_c17 + 3.6523 x_w9_c18 + 3.5598 x_w9_c19 + 4.4830 x_w9_c20 + 6.3982 x_w9_c21 + 5.2768 x_w9_c22 + 6.4015 x_w9_c23 + 4.2979 x_w9_c24 + 1.8781 x_w10_c0 + 4.2752 x_w10_c1 + 3.6010 x_w10_c2 + 7.0750 x_w10_c3 + 5.8353 x_w10_c4 + 3.0101 x_w10_c5 + 5.5849 x_w10_c6 + 6.7986 x_w10_c7 + 6.6197 x_w10_c8 + 3.7371 x_w10_c9 + 4.5340 x_w10_c10 + 4.8448 x_w10_c11 + 4.0626 x_w10_c12 + 5.2518 x_w10_c13 + 5.9950 x_w10_c14 + 5.3447 x_w10_c15 + 6.6467 x_w10_c16 + 4.3078 x_w10_c17 + 3.5150 x_w10_c18 + 7.2279 x_w10_c19 + 6.7334 x_w10_c20 + 3.9431 x_w10_c21 + 7.6682 x_w10_c22 + 4.3916 x_w10_c23 + 6.3636 x_w10_c24 + 0.5084 x_w11_c0 + 4.0501 x_w11_c1 + 4.8195 x_w11_c2 + 5.4509 x_w11_c3 + 3.2327 x_w11_c4 + 3.8204 x_w11_c5 + 4.1979 x_w11_c6 + 5.3353 x_w11_c7 + 7.8326 x_w11_c8 + 4.0431 x_w11_c9 + 7.0246 x_w11_c10 + 6.8883 x_w11_c11 + 6.6572 x_w11_c12 + 5.5444 x_w11_c13 + 7.6894 x_w11_c14 + 3.4793 x_w11_c15 + 7.3233 x_w11_c16 + 4.0726 x_w11_c17 + 4.1106 x_w11_c18 + 4.2229 x_w11_c19 + 3.2401 x_w11_c20 + 5.2488 x_w11_c21 + 5.1553 x_w11_c22 + 7.7720 x_w11_c23 + 5.7221 x_w11_c24 + 1.6943 x_w12_c0 + 6.7501 x_w12_c1 + 4.5422 x_w12_c2 + 5.6944 x_w12_c3 + 6.1367 x_w12_c4 + 3.3953 x_w12_c5 + 3.4326 x_w12_c6 + 5.5353 x_w12_c7 + 4.1158 x_w12_c8 + 7.8173 x_w12_c9 + 3.0064 x_w12_c10 + 4.5082 x_w12_c11 + 5.2600 x_w12_c12 + 6.9860 x_w12_c13 + 6.5088 x_w12_c14 + 3.9615 x_w12_c15 + 6.3752 x_w12_c16 + 4.3526 x_w12_c17 + 5.1204 x_w12_c18 + 6.3040 x_w12_c19 + 4.7975 x_w12_c20 + 5.3746 x_w12_c21 + 7.9766 x_w12_c22 + 7.4507 x_w12_c23 + 7.2028 x_w12_c24 + 0.9274 x_w13_c0 + 6.3300 x_w13_c1 + 7.2527 x_w13_c2 + 3.4486 x_w13_c3 + 3.8933 x_w13_c4 + 3.5580 x_w13_c5 + 7.5144 x_w13_c6 + 7.8129 x_w13_c7 + 4.6217 x_w13_c8 + 6.9899 x_w13_c9 + 5.3069 x_w13_c10 + 3.7302 x_w13_c11 + 4.3041 x_w13_c12 + 4.1021 x_w13_c13 + 7.2855 x_w13_c14 + 6.9197 x_w13_c15 + 7.9576 x_w13_c16 + 3.3821 x_w13_c17 + 7.1870 x_w13_c18 + 7.9535 x_w13_c19 + 4.9080 x_w13_c20 + 7.6769 x_w13_c21 + 5.6690 x_w13_c22 + 5.0015 x_w13_c23 + 5.6366 x_w13_c24 + 0.7504 x_w14_c0 + 3.4033 x_w14_c1 + 4.2641 x_w14_c2 + 6.8316 x_w14_c3 + 5.4236 x_w14_c4 + 6.4590 x_w14_c5 + 4.9639 x_w14_c6 + 5.3724 x_w14_c7 + 4.2203 x_w14_c8 + 6.4403 x_w14_c9 + 6.4307 x_w14_c10 + 4.1458 x_w14_c11 + 3.6948 x_w14_c12 + 4.0081 x_w14_c13 + 4.6249 x_w14_c14 + 5.0726 x_w14_c15 + 3.7376 x_w14_c16 + 5.6915 x_w14_c17 + 6.9236 x_w14_c18 + 5.3974 x_w14_c19 + 6.7365 x_w14_c20 + 3.4869 x_w14_c21 + 6.0197 x_w14_c22 + 6.0607 x_w14_c23 + 7.1708 x_w14_c24 + 1.4470 x_w15_c0 + 6.4287 x_w15_c1 + 7.4197 x_w15_c2 + 6.1804 x_w15_c3 + 4.3933 x_w15_c4 + 4.8275 x_w15_c5 + 6.2890 x_w15_c6 + 6.1744 x_w15_c7 + 7.2117 x_w15_c8 + 5.9116 x_w15_c9 + 6.1110 x_w15_c10 + 5.8775 x_w15_c11 + 6.0549 x_w15_c12 + 5.6722 x_w15_c13 + 6.8413 x_w15_c14 + 6.3205 x_w15_c15 + 6.1613 x_w15_c16 + 6.6745 x_w15_c17 + 5.0270 x_w15_c18 + 4.0887 x_w15_c19 + 6.1125 x_w15_c20 + 5.8297 x_w15_c21 + 6.5228 x_w15_c22 + 7.4287 x_w15_c23 + 3.5057 x_w15_c24 + 0.5637 x_w16_c0 + 5.7662 x_w16_c1 + 4.8896 x_w16_c2 + 5.6087 x_w16_c3 + 4.6619 x_w16_c4 + 5.0888 x_w16_c5 + 3.8202 x_w16_c6 + 5.3176 x_w16_c7 + 6.4742 x_w16_c8 + 4.5191 x_w16_c9 + 6.9332 x_w16_c10 + 7.5149 x_w16_c11 + 4.5185 x_w16_c12 + 5.2630 x_w16_c13 + 7.4110 x_w16_c14 + 7.5784 x_w16_c15 + 3.8995 x_w16_c16 + 4.9195 x_w16_c17 + 7.1316 x_w16_c18 + 6.3858 x_w16_c19 + 3.7246 x_w16_c20 + 6.1479 x_w16_c21 + 6.3469 x_w16_c22 + 5.7539 x_w16_c23 + 3.5018 x_w16_c24 + 1.3302 x_w17_c0 + 5.7986 x_w17_c1 + 5.6822 x_w17_c2 + 4.1483 x_w17_c3 + 5.0032 x_w17_c4 + 4.4490 x_w17_c5 + 4.9287 x_w17_c6 + 4.7403 x_w17_c7 + 4.7856 x_w17_c8 + 7.6801 x_w17_c9 + 4.4609 x_w17_c10 + 6.2872 x_w17_c11 + 6.3304 x_w17_c12 + 4.3585 x_w17_c13 + 5.8159 x_w17_c14 + 5.9295 x_w17_c15 + 6.3218 x_w17_c16 + 6.1560 x_w17_c17 + 5.0239 x_w17_c18 + 7.8644 x_w17_c19 + 3.6359 x_w17_c20 + 4.5624 x_w17_c21 + 3.5401 x_w17_c22 + 4.1013 x_w17_c23 + 6.1635 x_w17_c24 + 0.5433 x_w18_c0 + 7.0555 x_w18_c1 + 5.2167 x_w18_c2 + 3.8754 x_w18_c3 + 3.4108 x_w18_c4 + 6.4665 x_w18_c5 + 4.7953 x_w18_c6 + 6.0015 x_w18_c7 + 3.6899 x_w18_c8 + 4.1276 x_w18_c9 + 7.0914 x_w18_c10 + 4.2275 x_w18_c11 + 6.2000 x_w18_c12 + 7.0119 x_w18_c13 + 4.7610 x_w18_c14 + 5.1497 x_w18_c15 + 7.6824 x_w18_c16 + 6.2625 x_w18_c17 + 5.8655 x_w18_c18 + 7.0516 x_w18_c19 + 7.7670 x_w18_c20 + 6.9672 x_w18_c21 + 5.5092 x_w18_c22 + 4.8054 x_w18_c23 + 5.4395 x_w18_c24 + 1.5069 x_w19_c0 + 5.7187 x_w19_c1 + 5.4758 x_w19_c2 + 4.3321 x_w19_c3 + 6.8329 x_w19_c4 + 6.8780 x_w19_c5 + 4.1805 x_w19_c6 + 3.8211 x_w19_c7 + 5.2180 x_w19_c8 + 5.6514 x_w19_c9 + 3.6120 x_w19_c10 + 3.1022 x_w19_c11 + 4.8620 x_w19_c12 + 5.0891 x_w19_c13 + 4.5221 x_w19_c14 + 3.0105 x_w19_c15 + 4.6227 x_w19_c16 + 6.0068 x_w19_c17 + 6.8317 x_w19_c18 + 7.7839 x_w19_c19 + 3.6425 x_w19_c20 + 5.1958 x_w19_c21 + 5.5687 x_w19_c22 + 4.2459 x_w19_c23 + 6.1231 x_w19_c24 + 1.8957 x_w20_c0 + 7.2314 x_w20_c1 + 4.4890 x_w20_c2 + 5.4557 x_w20_c3 + 5.2578 x_w20_c4 + 3.2872 x_w20_c5 + 6.7180 x_w20_c6 + 3.7826 x_w20_c7 + 3.3315 x_w20_c8 + 6.5954 x_w20_c9 + 4.5045 x_w20_c10 + 4.2139 x_w20_c11 + 4.2052 x_w20_c12 + 3.2809 x_w20_c13 + 6.0692 x_w20_c14 + 7.1789 x_w20_c15 + 5.8016 x_w20_c16 + 5.9059 x_w20_c17 + 5.6150 x_w20_c18 + 5.0472 x_w20_c19 + 6.5285 x_w20_c20 + 4.9979 x_w20_c21 + 4.7851 x_w20_c22 + 5.5283 x_w20_c23 + 3.8054 x_w20_c24 + 1.2452 x_w21_c0 + 4.3539 x_w21_c1 + 3.7221 x_w21_c2 + 6.5048 x_w21_c3 + 6.6933 x_w21_c4 + 4.9555 x_w21_c5 + 5.3081 x_w21_c6 + 3.5571 x_w21_c7 + 7.9279 x_w21_c8 + 4.2530 x_w21_c9 + 7.4414 x_w21_c10 + 5.2970 x_w21_c11 + 4.3865 x_w21_c12 + 7.3649 x_w21_c13 + 7.1793 x_w21_c14 + 3.6478 x_w21_c15 + 4.4693 x_w21_c16 + 5.3221 x_w21_c17 + 3.7131 x_w21_c18 + 3.6306 x_w21_c19 + 5.7356 x_w21_c20 + 7.0751 x_w21_c21 + 3.6716 x_w21_c22 + 7.2379 x_w21_c23 + 3.9706 x_w21_c24 + 0.5714 x_w22_c0 + 6.7750 x_w22_c1 + 6.3846 x_w22_c2 + 3.5355 x_w22_c3 + 3.1802 x_w22_c4 + 7.2870 x_w22_c5 + 6.9281 x_w22_c6 + 4.2093 x_w22_c7 + 3.1524 x_w22_c8 + 6.2995 x_w22_c9 + 3.2877 x_w22_c10 + 5.4909 x_w22_c11 + 6.4436 x_w22_c12 + 6.7949 x_w22_c13 + 5.4981 x_w22_c14 + 3.1452 x_w22_c15 + 7.1099 x_w22_c16 + 4.0793 x_w22_c17 + 7.3155 x_w22_c18 + 7.2201 x_w22_c19 + 7.7983 x_w22_c20 + 7.9018 x_w22_c21 + 3.9105 x_w22_c22 + 3.7200 x_w22_c23 + 5.7391 x_w22_c24 + 0.6040 x_w23_c0 + 7.8370 x_w23_c1 + 5.3641 x_w23_c2 + 4.3426 x_w23_c3 + 6.7290 x_w23_c4 + 6.2351 x_w23_c5 + 3.4431 x_w23_c6 + 4.0984 x_w23_c7 + 6.8981 x_w23_c8 + 3.5763 x_w23_c9 + 6.0985 x_w23_c10 + 5.0439 x_w23_c11 + 7.6601 x_w23_c12 + 7.4724 x_w23_c13 + 6.9870 x_w23_c14 + 6.5382 x_w23_c15 + 5.4815 x_w23_c16 + 3.9672 x_w23_c17 + 5.2439 x_w23_c18 + 7.6962 x_w23_c19 + 3.8242 x_w23_c20 + 5.3834 x_w23_c21 + 4.5367 x_w23_c22 + 4.1502 x_w23_c23 + 7.5707 x_w23_c24 + 1.4160 x_w24_c0 + 5.2284 x_w24_c1 + 4.8517 x_w24_c2 + 6.0228 x_w24_c3 + 3.4150 x_w24_c4 + 6.0454 x_w24_c5 + 5.2767 x_w24_c6 + 5.0566 x_w24_c7 + 5.1772 x_w24_c8 + 6.8034 x_w24_c9 + 5.0338 x_w24_c10 + 3.6786 x_w24_c11 + 5.0763 x_w24_c12 + 6.2200 x_w24_c13 + 5.6744 x_w24_c14 + 4.5620 x_w24_c15 + 4.0203 x_w24_c16 + 6.3222 x_w24_c17 + 5.1159 x_w24_c18 + 3.0938 x_w24_c19 + 5.0420 x_w24_c20 + 7.2683 x_w24_c21 + 7.2053 x_w24_c22 + 6.4324 x_w24_c23 + 6.8602 x_w24_c24 + 1.4755 x_w25_c0 + 3.2844 x_w25_c1 + 3.1467 x_w25_c2 + 6.6320 x_w25_c3 + 3.3430 x_w25_c4 + 5.6656 x_w25_c5 + 5.0099 x_w25_c6 + 6.9837 x_w25_c7 + 4.1542 x_w25_c8 + 5.6703 x_w25_c9 + 4.6645 x_w25_c10 + 3.7128 x_w25_c11 + 4.2861 x_w25_c12 + 7.9380 x_w25_c13 + 4.8881 x_w25_c14 + 7.2503 x_w25_c15 + 7.9050 x_w25_c16 + 4.9066 x_w25_c17 + 4.7568 x_w25_c18 + 7.0382 x_w25_c19 + 6.4057 x_w25_c20 + 3.8751 x_w25_c21 + 5.6202 x_w25_c22 + 5.8981 x_w25_c23 + 5.5354 x_w25_c24 + 1.7610 x_w26_c0 + 7.3015 x_w26_c1 + 4.9580 x_w26_c2 + 7.6393 x_w26_c3 + 5.2658 x_w26_c4 + 7.3599 x_w26_c5 + 3.6504 x_w26_c6 + 7.9405 x_w26_c7 + 4.2846 x_w26_c8 + 4.9472 x_w26_c9 + 6.1659 x_w26_c10 + 5.1197 x_w26_c11 + 7.0203 x_w26_c12 + 4.2998 x_w26_c13 + 7.9381 x_w26_c14 + 7.6971 x_w26_c15 + 5.0258 x_w26_c16 + 7.2793 x_w26_c17 + 6.0055 x_w26_c18 + 7.5236 x_w26_c19 + 5.2307 x_w26_c20 + 7.1181 x_w26_c21 + 4.8292 x_w26_c22 + 5.6764 x_w26_c23 + 6.1670 x_w26_c24 + 0.7882 x_w27_c0 + 7.2453 x_w27_c1 + 5.3320 x_w27_c2 + 6.7369 x_w27_c3 + 6.3790 x_w27_c4 + 3.4927 x_w27_c5 + 7.2684 x_w27_c6 + 3.8507 x_w27_c7 + 7.3532 x_w27_c8 + 6.6903 x_w27_c9 + 5.2427 x_w27_c10 + 6.7056 x_w27_c11 + 7.3584 x_w27_c12 + 3.8936 x_w27_c13 + 4.8632 x_w27_c14 + 4.7609 x_w27_c15 + 7.9917 x_w27_c16 + 7.5034 x_w27_c17 + 3.5506 x_w27_c18 + 7.7734 x_w27_c19 + 3.9345 x_w27_c20 + 7.0593 x_w27_c21 + 5.4092 x_w27_c22 + 5.3884 x_w27_c23 + 4.9946 x_w27_c24 + 1.5639 x_w28_c0 + 7.0968 x_w28_c1 + 7.9736 x_w28_c2 + 6.9751 x_w28_c3 + 5.8795 x_w28_c4 + 6.8221 x_w28_c5 + 5.4586 x_w28_c6 + 3.1345 x_w28_c7 + 3.9377 x_w28_c8 + 3.1235 x_w28_c9 + 4.5293 x_w28_c10 + 5.1136 x_w28_c11 + 3.7883 x_w28_c12 + 3.2682 x_w28_c13 + 4.2310 x_w28_c14 + 6.5360 x_w28_c15 + 4.9815 x_w28_c16 + 4.1911 x_w28_c17 + 4.5689 x_w28_c18 + 7.8795 x_w28_c19 + 7.9871 x_w28_c20 + 5.1856 x_w28_c21 + 5.2790 x_w28_c22 + 6.4370 x_w28_c23 + 7.9264 x_w28_c24 + 1.1655 x_w29_c0 + 7.6980 x_w29_c1 + 4.3668 x_w29_c2 + 7.7275 x_w29_c3 + 3.2264 x_w29_c4 + 7.6021 x_w29_c5 + 4.8239 x_w29_c6 + 3.0276 x_w29_c7 + 4.6750 x_w29_c8 + 5.2760 x_w29_c9 + 7.9808 x_w29_c10 + 6.3717 x_w29_c11 + 7.5962 x_w29_c12 + 6.8802 x_w29_c13 + 6.2315 x_w29_c14 + 7.2272 x_w29_c15 + 5.9424 x_w29_c16 + 3.3215 x_w29_c17 + 6.2995 x_w29_c18 + 7.0007 x_w29_c19 + 6.9200 x_w29_c20 + 6.0920 x_w29_c21 + 6.1945 x_w29_c22 + 5.5869 x_w29_c23 + 6.6032 x_w29_c24 + 0.5426 x_w30_c0 + 7.5346 x_w30_c1 + 5.5757 x_w30_c2 + 7.3843 x_w30_c3 + 3.1306 x_w30_c4 + 5.8914 x_w30_c5 + 5.3946 x_w30_c6 + 3.3731 x_w30_c7 + 5.1060 x_w30_c8 + 7.1368 x_w30_c9 + 4.0407 x_w30_c10 + 4.4007 x_w30_c11 + 6.3922 x_w30_c12 + 6.2083 x_w30_c13 + 7.0739 x_w30_c14 + 5.2573 x_w30_c15 + 4.6063 x_w30_c16 + 5.1752 x_w30_c17 + 5.6982 x_w30_c18 + 6.6114 x_w30_c19 + 3.5624 x_w30_c20 + 7.8357 x_w30_c21 + 3.3395 x_w30_c22 + 6.7075 x_w30_c23 + 6.7204 x_w30_c24 + 1.1398 x_w31_c0 + 5.8509 x_w31_c1 + 7.6598 x_w31_c2 + 5.8737 x_w31_c3 + 3.6304 x_w31_c4 + 4.2694 x_w31_c5 + 7.3873 x_w31_c6 + 7.2698 x_w31_c7 + 3.2278 x_w31_c8 + 6.6019 x_w31_c9 + 3.8558 x_w31_c10 + 6.7499 x_w31_c11 + 4.7718 x_w31_c12 + 5.7637 x_w31_c13 + 5.0955 x_w31_c14 + 5.9649 x_w31_c15 + 5.3268 x_w31_c16 + 5.3724 x_w31_c17 + 7.5612 x_w31_c18 + 3.8064 x_w31_c19 + 4.3337 x_w31_c20 + 6.2494 x_w31_c21 + 3.3929 x_w31_c22 + 4.0979 x_w31_c23 + 5.8287 x_w31_c24 + 0.6368 x_w32_c0 + 4.4131 x_w32_c1 + 7.1052 x_w32_c2 + 6.2805 x_w32_c3 + 5.0345 x_w32_c4 + 7.0472 x_w32_c5 + 5.7360 x_w32_c6 + 6.2093 x_w32_c7 + 3.5263 x_w32_c8 + 6.6433 x_w32_c9 + 6.4426 x_w32_c10 + 7.1268 x_w32_c11 + 3.3025 x_w32_c12 + 5.5255 x_w32_c13 + 7.2922 x_w32_c14 + 7.6884 x_w32_c15 + 5.0095 x_w32_c16 + 4.5143 x_w32_c17 + 3.0359 x_w32_c18 + 3.8102 x_w32_c19 + 6.8848 x_w32_c20 + 3.8875 x_w32_c21 + 6.7115 x_w32_c22 + 5.0919 x_w32_c23 + 5.7194 x_w32_c24 + 1.0889 x_w33_c0 + 5.7899 x_w33_c1 + 4.8450 x_w33_c2 + 3.3506 x_w33_c3 + 5.6009 x_w33_c4 + 7.0912 x_w33_c5 + 3.9248 x_w33_c6 + 3.2268 x_w33_c7 + 7.8477 x_w33_c8 + 5.1202 x_w33_c9 + 4.4267 x_w33_c10 + 4.9289 x_w33_c11 + 7.6460 x_w33_c12 + 5.3829 x_w33_c13 + 7.3257 x_w33_c14 + 7.7392 x_w33_c15 + 4.8247 x_w33_c16 + 4.5593 x_w33_c17 + 4.7639 x_w33_c18 + 5.7850 x_w33_c19 + 5.3406 x_w33_c20 + 5.3553 x_w33_c21 + 3.4435 x_w33_c22 + 7.0452 x_w33_c23 + 4.0026 x_w33_c24 + 0.7213 x_w34_c0 + 6.0493 x_w34_c1 + 6.1701 x_w34_c2 + 4.9899 x_w34_c3 + 3.4108 x_w34_c4 + 3.3204 x_w34_c5 + 3.4600 x_w34_c6 + 6.0940 x_w34_c7 + 6.4226 x_w34_c8 + 6.2535 x_w34_c9 + 4.3857 x_w34_c10 + 7.2398 x_w34_c11 + 6.5471 x_w34_c12 + 7.8389 x_w34_c13 + 5.6450 x_w34_c14 + 7.4116 x_w34_c15 + 7.0770 x_w34_c16 + 6.4012 x_w34_c17 + 6.8627 x_w34_c18 + 7.2433 x_w34_c19 + 6.5475 x_w34_c20 + 7.8095 x_w34_c21 + 4.9513 x_w34_c22 + 3.2121 x_w34_c23 + 3.7789 x_w34_c24 + 1.0076 x_w35_c0 + 6.5209 x_w35_c1 + 7.0877 x_w35_c2 + 7.2049 x_w35_c3 + 3.9138 x_w35_c4 + 5.8503 x_w35_c5 + 7.5603 x_w35_c6 + 3.6254 x_w35_c7 + 3.2635 x_w35_c8 + 5.8120 x_w35_c9 + 5.3465 x_w35_c10 + 6.2874 x_w35_c11 + 6.5756 x_w35_c12 + 3.3126 x_w35_c13 + 5.1368 x_w35_c14 + 4.3598 x_w35_c15 + 7.4309 x_w35_c16 + 3.9511 x_w35_c17 + 5.3960 x_w35_c18 + 6.9364 x_w35_c19 + 5.8005 x_w35_c20 + 4.0952 x_w35_c21 + 4.8620 x_w35_c22 + 3.4381 x_w35_c23 + 3.6631 x_w35_c24 + 1.0506 x_w36_c0 + 3.8608 x_w36_c1 + 3.3686 x_w36_c2 + 6.0712 x_w36_c3 + 4.5953 x_w36_c4 + 5.1374 x_w36_c5 + 7.7676 x_w36_c6 + 6.4441 x_w36_c7 + 4.6611 x_w36_c8 + 5.7857 x_w36_c9 + 7.1036 x_w36_c10 + 5.4418 x_w36_c11 + 3.1240 x_w36_c12 + 4.7927 x_w36_c13 + 5.6776 x_w36_c14 + 7.8730 x_w36_c15 + 4.6030 x_w36_c16 + 5.8782 x_w36_c17 + 3.6656 x_w36_c18 + 7.1114 x_w36_c19 + 5.2094 x_w36_c20 + 7.3640 x_w36_c21 + 3.7636 x_w36_c22 + 3.5886 x_w36_c23 + 6.6042 x_w36_c24 + 1.5616 x_w37_c0 + 4.3869 x_w37_c1 + 5.3592 x_w37_c2 + 4.1374 x_w37_c3 + 7.1161 x_w37_c4 + 5.9468 x_w37_c5 + 6.7247 x_w37_c6 + 6.1111 x_w37_c7 + 4.1395 x_w37_c8 + 6.0264 x_w37_c9 + 4.6966 x_w37_c10 + 6.8532 x_w37_c11 + 5.2191 x_w37_c12 + 4.5687 x_w37_c13 + 7.2588 x_w37_c14 + 4.1225 x_w37_c15 + 4.3935 x_w37_c16 + 4.9636 x_w37_c17 + 3.4320 x_w37_c18 + 4.9095 x_w37_c19 + 7.4549 x_w37_c20 + 7.5385 x_w37_c21 + 5.9355 x_w37_c22 + 6.7801 x_w37_c23 + 4.3937 x_w37_c24 + 0.5589 x_w38_c0 + 7.3089 x_w38_c1 + 5.8029 x_w38_c2 + 7.5511 x_w38_c3 + 4.1663 x_w38_c4 + 4.9033 x_w38_c5 + 5.7712 x_w38_c6 + 4.0063 x_w38_c7 + 5.3175 x_w38_c8 + 5.1056 x_w38_c9 + 3.5550 x_w38_c10 + 4.8270 x_w38_c11 + 5.8040 x_w38_c12 + 4.7407 x_w38_c13 + 7.2663 x_w38_c14 + 6.6995 x_w38_c15 + 3.1302 x_w38_c16 + 3.4209 x_w38_c17 + 3.0343 x_w38_c18 + 3.3525 x_w38_c19 + 4.1180 x_w38_c20 + 3.6871 x_w38_c21 + 5.1086 x_w38_c22 + 5.9431 x_w38_c23 + 3.8572 x_w38_c24 + 1.3621 x_w39_c0 + 6.6821 x_w39_c1 + 7.9624 x_w39_c2 + 3.7379 x_w39_c3 + 6.0797 x_w39_c4 + 6.1659 x_w39_c5 + 6.0488 x_w39_c6 + 4.0788 x_w39_c7 + 4.1049 x_w39_c8 + 7.8377 x_w39_c9 + 3.6048 x_w39_c10 + 4.6210 x_w39_c11 + 7.4245 x_w39_c12 + 3.5675 x_w39_c13 + 3.6650 x_w39_c14 + 7.5462 x_w39_c15 + 3.6924 x_w39_c16 + 5.6499 x_w39_c17 + 5.2855 x_w39_c18 + 5.6363 x_w39_c19 + 3.0876 x_w39_c20 + 6.7157 x_w39_c21 + 7.0133 x_w39_c22 + 7.2242 x_w39_c23 + 5.1570 x_w39_c24 + 1.3307 x_w40_c0 + 5.8985 x_w40_c1 + 6.3703 x_w40_c2 + 6.6807 x_w40_c3 + 6.0765 x_w40_c4 + 6.7130 x_w40_c5 + 7.0361 x_w40_c6 + 4.4509 x_w40_c7 + 6.2311 x_w40_c8 + 5.5210 x_w40_c9 + 6.6256 x_w40_c10 + 6.9308 x_w40_c11 + 4.8349 x_w40_c12 + 6.4224 x_w40_c13 + 7.8552 x_w40_c14 + 3.3609 x_w40_c15 + 3.7286 x_w40_c16 + 6.1528 x_w40_c17 + 6.3877 x_w40_c18 + 4.5047 x_w40_c19 + 6.0737 x_w40_c20 + 5.9980 x_w40_c21 + 3.2901 x_w40_c22 + 4.8098 x_w40_c23 + 5.9829 x_w40_c24 + 1.3445 x_w41_c0 + 7.1311 x_w41_c1 + 3.1612 x_w41_c2 + 6.5414 x_w41_c3 + 7.0278 x_w41_c4 + 7.4858 x_w41_c5 + 7.2497 x_w41_c6 + 7.3311 x_w41_c7 + 3.1087 x_w41_c8 + 4.9027 x_w41_c9 + 4.7675 x_w41_c10 + 5.4741 x_w41_c11 + 5.4002 x_w41_c12 + 6.2168 x_w41_c13 + 7.0834 x_w41_c14 + 3.4969 x_w41_c15 + 4.6033 x_w41_c16 + 7.7804 x_w41_c17 + 5.1044 x_w41_c18 + 7.7911 x_w41_c19 + 5.1049 x_w41_c20 + 5.8631 x_w41_c21 + 6.0306 x_w41_c22 + 7.2260 x_w41_c23 + 6.2849 x_w41_c24 + 1.9006 x_w42_c0 + 5.9098 x_w42_c1 + 5.7039 x_w42_c2 + 7.0269 x_w42_c3 + 7.4724 x_w42_c4 + 3.6440 x_w42_c5 + 7.2151 x_w42_c6 + 3.7760 x_w42_c7 + 6.1010 x_w42_c8 + 6.7820 x_w42_c9 + 4.3586 x_w42_c10 + 5.3289 x_w42_c11 + 5.0532 x_w42_c12 + 7.7283 x_w42_c13 + 4.9157 x_w42_c14 + 5.8016 x_w42_c15 + 5.6910 x_w42_c16 + 7.1531 x_w42_c17 + 3.2501 x_w42_c18 + 6.0506 x_w42_c19 + 3.4650 x_w42_c20 + 5.3012 x_w42_c21 + 7.5768 x_w42_c22 + 5.2399 x_w42_c23 + 6.2091 x_w42_c24 + 1.1285 x_w43_c0 + 5.1606 x_w43_c1 + 3.3250 x_w43_c2 + 5.2828 x_w43_c3 + 6.9180 x_w43_c4 + 4.2115 x_w43_c5 + 6.0959 x_w43_c6 + 6.8349 x_w43_c7 + 4.6313 x_w43_c8 + 4.8516 x_w43_c9 + 3.3138 x_w43_c10 + 7.2164 x_w43_c11 + 4.1710 x_w43_c12 + 7.0779 x_w43_c13 + 5.3431 x_w43_c14 + 3.4461 x_w43_c15 + 7.6922 x_w43_c16 + 5.1252 x_w43_c17 + 4.9631 x_w43_c18 + 4.5414 x_w43_c19 + 3.7781 x_w43_c20 + 7.4002 x_w43_c21 + 5.2157 x_w43_c22 + 3.8798 x_w43_c23 + 3.6011 x_w43_c24 + 0.5244 x_w44_c0 + 3.6154 x_w44_c1 + 4.4245 x_w44_c2 + 6.4476 x_w44_c3 + 3.9427 x_w44_c4 + 6.6706 x_w44_c5 + 6.6480 x_w44_c6 + 4.1828 x_w44_c7 + 3.6025 x_w44_c8 + 3.4583 x_w44_c9 + 5.1448 x_w44_c10 + 5.0035 x_w44_c11 + 4.7808 x_w44_c12 + 4.7466 x_w44_c13 + 6.0233 x_w44_c14 + 3.1216 x_w44_c15 + 7.6337 x_w44_c16 + 5.5621 x_w44_c17 + 3.2692 x_w44_c18 + 6.3923 x_w44_c19 + 6.9238 x_w44_c20 + 3.1197 x_w44_c21 + 3.8528 x_w44_c22 + 5.9085 x_w44_c23 + 4.8432 x_w44_c24 + 1.3584 x_w45_c0 + 3.3271 x_w45_c1 + 5.5513 x_w45_c2 + 4.9931 x_w45_c3 + 7.5581 x_w45_c4 + 5.9772 x_w45_c5 + 6.5555 x_w45_c6 + 6.5651 x_w45_c7 + 5.9792 x_w45_c8 + 6.4937 x_w45_c9 + 3.4303 x_w45_c10 + 6.2470 x_w45_c11 + 7.6933 x_w45_c12 + 6.0252 x_w45_c13 + 3.8057 x_w45_c14 + 7.8775 x_w45_c15 + 7.9190 x_w45_c16 + 5.4502 x_w45_c17 + 3.1882 x_w45_c18 + 7.4518 x_w45_c19 + 7.2327 x_w45_c20 + 6.4540 x_w45_c21 + 4.0449 x_w45_c22 + 5.6726 x_w45_c23 + 4.6060 x_w45_c24 + 1.7693 x_w46_c0 + 4.7719 x_w46_c1 + 5.3264 x_w46_c2 + 5.3000 x_w46_c3 + 4.7697 x_w46_c4 + 3.6644 x_w46_c5 + 6.4955 x_w46_c6 + 6.8668 x_w46_c7 + 5.0516 x_w46_c8 + 6.6489 x_w46_c9 + 6.0991 x_w46_c10 + 5.9401 x_w46_c11 + 5.2773 x_w46_c12 + 7.5756 x_w46_c13 + 6.7171 x_w46_c14 + 4.4933 x_w46_c15 + 3.4416 x_w46_c16 + 5.7749 x_w46_c17 + 4.6744 x_w46_c18 + 5.9675 x_w46_c19 + 7.5410 x_w46_c20 + 3.8590 x_w46_c21 + 6.1157 x_w46_c22 + 4.3739 x_w46_c23 + 5.2740 x_w46_c24 + 1.8607 x_w47_c0 + 5.2152 x_w47_c1 + 7.4595 x_w47_c2 + 3.2882 x_w47_c3 + 7.0624 x_w47_c4 + 6.6262 x_w47_c5 + 6.9122 x_w47_c6 + 6.1464 x_w47_c7 + 6.9894 x_w47_c8 + 3.7744 x_w47_c9 + 3.9254 x_w47_c10 + 7.5590 x_w47_c11 + 7.5103 x_w47_c12 + 4.3231 x_w47_c13 + 5.0291 x_w47_c14 + 6.9706 x_w47_c15 + 5.7949 x_w47_c16 + 6.9423 x_w47_c17 + 3.8562 x_w47_c18 + 3.0815 x_w47_c19 + 7.4543 x_w47_c20 + 7.0337 x_w47_c21 + 7.0303 x_w47_c22 + 6.3127 x_w47_c23 + 3.1432 x_w47_c24 + 1.1876 x_w48_c0 + 4.8431 x_w48_c1 + 7.6033 x_w48_c2 + 5.9115 x_w48_c3 + 7.1640 x_w48_c4 + 5.7682 x_w48_c5 + 4.4782 x_w48_c6 + 4.8657 x_w48_c7 + 4.7901 x_w48_c8 + 5.0553 x_w48_c9 + 4.4890 x_w48_c10 + 5.1878 x_w48_c11 + 4.1670 x_w48_c12 + 3.5611 x_w48_c13 + 5.3085 x_w48_c14 + 7.5703 x_w48_c15 + 4.7407 x_w48_c16 + 5.4135 x_w48_c17 + 6.4572 x_w48_c18 + 5.3371 x_w48_c19 + 3.0809 x_w48_c20 + 6.4513 x_w48_c21 + 5.2222 x_w48_c22 + 3.7174 x_w48_c23 + 6.6599 x_w48_c24 + 1.1668 x_w49_c0 + 5.5586 x_w49_c1 + 3.3142 x_w49_c2 + 3.9506 x_w49_c3 + 3.3218 x_w49_c4 + 6.5874 x_w49_c5 + 6.8855 x_w49_c6 + 6.8338 x_w49_c7 + 3.9740 x_w49_c8 + 7.1628 x_w49_c9 + 6.4101 x_w49_c10 + 7.0844 x_w49_c11 + 3.1792 x_w49_c12 + 6.1369 x_w49_c13 + 4.3482 x_w49_c14 + 6.1211 x_w49_c15 + 4.5708 x_w49_c16 + 7.2095 x_w49_c17 + 4.0101 x_w49_c18 + 4.9852 x_w49_c19 + 4.4025 x_w49_c20 + 3.7685 x_w49_c21 + 5.5736 x_w49_c22 + 7.1800 x_w49_c23 + 4.0508 x_w49_c24 + 1.8124 x_w50_c0 + 3.7359 x_w50_c1 + 7.9006 x_w50_c2 + 5.9452 x_w50_c3 + 6.2779 x_w50_c4 + 7.9229 x_w50_c5 + 6.0025 x_w50_c6 + 3.3568 x_w50_c7 + 3.2226 x_w50_c8 + 4.4694 x_w50_c9 + 3.8410 x_w50_c10 + 5.2664 x_w50_c11 + 7.1701 x_w50_c12 + 6.8211 x_w50_c13 + 5.5009 x_w50_c14 + 5.1923 x_w50_c15 + 3.0808 x_w50_c16 + 7.3142 x_w50_c17 + 3.7232 x_w50_c18 + 4.0632 x_w50_c19 + 5.5865 x_w50_c20 + 5.2764 x_w50_c21 + 6.7701 x_w50_c22 + 4.0374 x_w50_c23 + 7.9579 x_w50_c24 + 1.0612 x_w51_c0 + 4.7863 x_w51_c1 + 7.9325 x_w51_c2 + 5.8129 x_w51_c3 + 6.4955 x_w51_c4 + 4.5008 x_w51_c5 + 3.2229 x_w51_c6 + 6.6062 x_w51_c7 + 4.5466 x_w51_c8 + 4.9174 x_w51_c9 + 3.6514 x_w51_c10 + 7.9108 x_w51_c11 + 4.1980 x_w51_c12 + 3.8033 x_w51_c13 + 4.4373 x_w51_c14 + 4.8859 x_w51_c15 + 7.8571 x_w51_c16 + 6.5142 x_w51_c17 + 4.8690 x_w51_c18 + 3.1167 x_w51_c19 + 4.0474 x_w51_c20 + 3.6839 x_w51_c21 + 6.1705 x_w51_c22 + 3.7412 x_w51_c23 + 6.9360 x_w51_c24 + 1.5481 x_w52_c0 + 3.5341 x_w52_c1 + 7.0509 x_w52_c2 + 3.8786 x_w52_c3 + 6.1373 x_w52_c4 + 7.9202 x_w52_c5 + 7.8059 x_w52_c6 + 3.4558 x_w52_c7 + 7.1897 x_w52_c8 + 4.7514 x_w52_c9 + 5.7831 x_w52_c10 + 7.5923 x_w52_c11 + 7.4050 x_w52_c12 + 6.5851 x_w52_c13 + 5.8107 x_w52_c14 + 4.3293 x_w52_c15 + 5.6611 x_w52_c16 + 3.2836 x_w52_c17 + 3.1681 x_w52_c18 + 7.3519 x_w52_c19 + 6.2114 x_w52_c20 + 3.1666 x_w52_c21 + 5.5592 x_w52_c22 + 3.3143 x_w52_c23 + 3.4769 x_w52_c24 + 1.2378 x_w53_c0 + 6.7987 x_w53_c1 + 3.7098 x_w53_c2 + 3.8592 x_w53_c3 + 4.9077 x_w53_c4 + 6.8492 x_w53_c5 + 6.7229 x_w53_c6 + 6.1109 x_w53_c7 + 7.5873 x_w53_c8 + 6.8224 x_w53_c9 + 6.4067 x_w53_c10 + 7.7083 x_w53_c11 + 5.4258 x_w53_c12 + 5.1549 x_w53_c13 + 4.0929 x_w53_c14 + 5.3263 x_w53_c15 + 4.8393 x_w53_c16 + 6.4092 x_w53_c17 + 5.0437 x_w53_c18 + 6.0710 x_w53_c19 + 6.3696 x_w53_c20 + 6.4230 x_w53_c21 + 7.5316 x_w53_c22 + 4.2809 x_w53_c23 + 7.4986 x_w53_c24 + 0.6350 x_w54_c0 + 3.9849 x_w54_c1 + 6.1781 x_w54_c2 + 7.3199 x_w54_c3 + 6.0373 x_w54_c4 + 3.0288 x_w54_c5 + 7.7808 x_w54_c6 + 3.8524 x_w54_c7 + 4.1214 x_w54_c8 + 7.8149 x_w54_c9 + 3.0453 x_w54_c10 + 3.7111 x_w54_c11 + 7.3138 x_w54_c12 + 5.0248 x_w54_c13 + 6.7380 x_w54_c14 + 6.4027 x_w54_c15 + 6.1525 x_w54_c16 + 3.2715 x_w54_c17 + 7.9011 x_w54_c18 + 3.5629 x_w54_c19 + 4.4250 x_w54_c20 + 5.6065 x_w54_c21 + 6.0036 x_w54_c22 + 4.5070 x_w54_c23 + 5.1255 x_w54_c24 + 1.2804 x_w55_c0 + 7.6179 x_w55_c1 + 7.6773 x_w55_c2 + 3.3023 x_w55_c3 + 4.4305 x_w55_c4 + 5.1438 x_w55_c5 + 4.0502 x_w55_c6 + 7.6219 x_w55_c7 + 4.5528 x_w55_c8 + 6.1934 x_w55_c9 + 3.3885 x_w55_c10 + 6.6802 x_w55_c11 + 6.1228 x_w55_c12 + 3.6417 x_w55_c13 + 6.4103 x_w55_c14 + 6.5890 x_w55_c15 + 7.1341 x_w55_c16 + 6.6527 x_w55_c17 + 5.6018 x_w55_c18 + 3.3666 x_w55_c19 + 4.5969 x_w55_c20 + 5.0984 x_w55_c21 + 7.3613 x_w55_c22 + 3.4594 x_w55_c23 + 5.7586 x_w55_c24 + 0.8948 x_w56_c0 + 4.1733 x_w56_c1 + 4.4638 x_w56_c2 + 5.6733 x_w56_c3 + 5.9764 x_w56_c4 + 4.5382 x_w56_c5 + 5.2965 x_w56_c6 + 4.8477 x_w56_c7 + 3.6299 x_w56_c8 + 3.9571 x_w56_c9 + 7.9131 x_w56_c10 + 6.6936 x_w56_c11 + 3.9042 x_w56_c12 + 7.0124 x_w56_c13 + 4.4520 x_w56_c14 + 6.4474 x_w56_c15 + 4.3807 x_w56_c16 + 4.9436 x_w56_c17 + 3.3964 x_w56_c18 + 4.7061 x_w56_c19 + 4.7824 x_w56_c20 + 5.1155 x_w56_c21 + 3.8140 x_w56_c22 + 6.6215 x_w56_c23 + 4.7442 x_w56_c24 + 0.8813 x_w57_c0 + 4.4593 x_w57_c1 + 4.9597 x_w57_c2 + 5.1029 x_w57_c3 + 7.7444 x_w57_c4 + 4.3497 x_w57_c5 + 3.3554 x_w57_c6 + 6.0234 x_w57_c7 + 5.0085 x_w57_c8 + 7.5887 x_w57_c9 + 3.5026 x_w57_c10 + 7.4929 x_w57_c11 + 4.7364 x_w57_c12 + 4.6005 x_w57_c13 + 6.8584 x_w57_c14 + 5.8534 x_w57_c15 + 4.1401 x_w57_c16 + 7.2431 x_w57_c17 + 4.0694 x_w57_c18 + 4.1307 x_w57_c19 + 5.4349 x_w57_c20 + 5.8322 x_w57_c21 + 4.0471 x_w57_c22 + 6.1875 x_w57_c23 + 4.4447 x_w57_c24 + 1.8627 x_w58_c0 + 4.3495 x_w58_c1 + 4.4214 x_w58_c2 + 7.1560 x_w58_c3 + 5.6794 x_w58_c4 + 7.4700 x_w58_c5 + 6.3134 x_w58_c6 + 7.6151 x_w58_c7 + 5.3511 x_w58_c8 + 7.4177 x_w58_c9 + 3.3614 x_w58_c10 + 6.1918 x_w58_c11 + 5.6191 x_w58_c12 + 5.5241 x_w58_c13 + 3.2039 x_w58_c14 + 4.9435 x_w58_c15 + 6.2017 x_w58_c16 + 4.0515 x_w58_c17 + 7.2243 x_w58_c18 + 5.5099 x_w58_c19 + 7.6099 x_w58_c20 + 7.7723 x_w58_c21 + 6.3993 x_w58_c22 + 4.3353 x_w58_c23 + 4.4121 x_w58_c24 + 1.9658 x_w59_c0 + 7.1791 x_w59_c1 + 5.1012 x_w59_c2 + 3.4530 x_w59_c3 + 3.1650 x_w59_c4 + 4.7234 x_w59_c5 + 7.0348 x_w59_c6 + 5.9184 x_w59_c7 + 5.8342 x_w59_c8 + 7.4608 x_w59_c9 + 6.5901 x_w59_c10 + 6.7895 x_w59_c11 + 4.0999 x_w59_c12 + 5.0561 x_w59_c13 + 7.7778 x_w59_c14 + 3.1475 x_w59_c15 + 6.6691 x_w59_c16 + 4.5942 x_w59_c17 + 5.5166 x_w59_c18 + 7.8993 x_w59_c19 + 3.3147 x_w59_c20 + 6.0284 x_w59_c21 + 7.3738 x_w59_c22 + 6.8078 x_w59_c23 + 4.2042 x_w59_c24 + 0.6898 x_w60_c0 + 7.2433 x_w60_c1 + 6.3991 x_w60_c2 + 7.4518 x_w60_c3 + 3.4229 x_w60_c4 + 5.8121 x_w60_c5 + 5.2710 x_w60_c6 + 3.3892 x_w60_c7 + 6.1418 x_w60_c8 + 5.4909 x_w60_c9 + 3.8256 x_w60_c10 + 3.8094 x_w60_c11 + 3.1938 x_w60_c12 + 5.0453 x_w60_c13 + 3.4332 x_w60_c14 + 7.8955 x_w60_c15 + 5.2882 x_w60_c16 + 5.9467 x_w60_c17 + 7.3826 x_w60_c18 + 5.2058 x_w60_c19 + 3.6777 x_w60_c20 + 4.3241 x_w60_c21 + 6.0378 x_w60_c22 + 3.7032 x_w60_c23 + 3.1603 x_w60_c24 + 0.5993 x_w61_c0 + 4.6021 x_w61_c1 + 6.3180 x_w61_c2 + 7.9708 x_w61_c3 + 6.1182 x_w61_c4 + 3.8500 x_w61_c5 + 3.0409 x_w61_c6 + 7.1391 x_w61_c7 + 6.5594 x_w61_c8 + 6.5804 x_w61_c9 + 7.3276 x_w61_c10 + 7.3870 x_w61_c11 + 5.0988 x_w61_c12 + 6.8404 x_w61_c13 + 6.6035 x_w61_c14 + 4.2381 x_w61_c15 + 4.3411 x_w61_c16 + 4.0864 x_w61_c17 + 4.3359 x_w61_c18 + 6.3389 x_w61_c19 + 6.1381 x_w61_c20 + 4.9262 x_w61_c21 + 3.3955 x_w61_c22 + 4.7341 x_w61_c23 + 7.8534 x_w61_c24 + 0.5677 x_w62_c0 + 3.9723 x_w62_c1 + 5.2723 x_w62_c2 + 7.4829 x_w62_c3 + 3.5282 x_w62_c4 + 4.7261 x_w62_c5 + 7.1701 x_w62_c6 + 7.5416 x_w62_c7 + 3.4008 x_w62_c8 + 4.9899 x_w62_c9 + 4.4630 x_w62_c10 + 5.4040 x_w62_c11 + 7.4968 x_w62_c12 + 3.9553 x_w62_c13 + 5.7600 x_w62_c14 + 4.9225 x_w62_c15 + 4.1197 x_w62_c16 + 7.4105 x_w62_c17 + 3.2007 x_w62_c18 + 3.1106 x_w62_c19 + 5.0920 x_w62_c20 + 5.3111 x_w62_c21 + 7.0061 x_w62_c22 + 3.2668 x_w62_c23 + 7.8726 x_w62_c24 + 1.0991 x_w63_c0 + 3.6124 x_w63_c1 + 5.1413 x_w63_c2 + 7.0544 x_w63_c3 + 7.7067 x_w63_c4 + 6.0691 x_w63_c5 + 6.7385 x_w63_c6 + 4.1992 x_w63_c7 + 3.2909 x_w63_c8 + 7.3813 x_w63_c9 + 6.9323 x_w63_c10 + 3.7459 x_w63_c11 + 4.4857 x_w63_c12 + 7.5565 x_w63_c13 + 6.3072 x_w63_c14 + 3.4384 x_w63_c15 + 3.4598 x_w63_c16 + 5.7802 x_w63_c17 + 6.9791 x_w63_c18 + 7.1049 x_w63_c19 + 4.6727 x_w63_c20 + 4.9552 x_w63_c21 + 4.7190 x_w63_c22 + 4.8510 x_w63_c23 + 7.5220 x_w63_c24 + 0.8257 x_w64_c0 + 7.1179 x_w64_c1 + 7.8545 x_w64_c2 + 6.9060 x_w64_c3 + 3.0148 x_w64_c4 + 3.6751 x_w64_c5 + 6.7579 x_w64_c6 + 4.6347 x_w64_c7 + 5.9312 x_w64_c8 + 4.8237 x_w64_c9 + 4.1854 x_w64_c10 + 4.2832 x_w64_c11 + 7.5754 x_w64_c12 + 5.7431 x_w64_c13 + 3.4298 x_w64_c14 + 6.1977 x_w64_c15 + 6.8745 x_w64_c16 + 6.2745 x_w64_c17 + 5.3437 x_w64_c18 + 4.4510 x_w64_c19 + 3.1435 x_w64_c20 + 4.7173 x_w64_c21 + 7.9980 x_w64_c22 + 6.9367 x_w64_c23 + 4.6369 x_w64_c24 + 1.9456 x_w65_c0 + 5.5134 x_w65_c1 + 6.7595 x_w65_c2 + 3.5904 x_w65_c3 + 7.8345 x_w65_c4 + 5.0053 x_w65_c5 + 5.3075 x_w65_c6 + 7.5393 x_w65_c7 + 3.3155 x_w65_c8 + 5.6537 x_w65_c9 + 3.2147 x_w65_c10 + 7.7450 x_w65_c11 + 7.3955 x_w65_c12 + 5.2856 x_w65_c13 + 3.7931 x_w65_c14 + 4.7409 x_w65_c15 + 4.6508 x_w65_c16 + 5.7591 x_w65_c17 + 7.1551 x_w65_c18 + 3.5443 x_w65_c19 + 7.2917 x_w65_c20 + 3.8127 x_w65_c21 + 5.0155 x_w65_c22 + 5.7149 x_w65_c23 + 5.1654 x_w65_c24 + 0.5484 x_w66_c0 + 5.8219 x_w66_c1 + 7.6487 x_w66_c2 + 6.7785 x_w66_c3 + 4.8776 x_w66_c4 + 4.2387 x_w66_c5 + 4.2978 x_w66_c6 + 5.9668 x_w66_c7 + 3.8618 x_w66_c8 + 7.0870 x_w66_c9 + 6.7711 x_w66_c10 + 5.6814 x_w66_c11 + 7.8072 x_w66_c12 + 3.7213 x_w66_c13 + 4.2746 x_w66_c14 + 4.0024 x_w66_c15 + 6.7196 x_w66_c16 + 6.2332 x_w66_c17 + 4.2619 x_w66_c18 + 4.8713 x_w66_c19 + 7.6275 x_w66_c20 + 5.8242 x_w66_c21 + 6.0793 x_w66_c22 + 5.9955 x_w66_c23 + 4.3169 x_w66_c24 + 1.0270 x_w67_c0 + 6.9229 x_w67_c1 + 5.8330 x_w67_c2 + 3.5034 x_w67_c3 + 6.0156 x_w67_c4 + 3.3295 x_w67_c5 + 4.2960 x_w67_c6 + 7.9322 x_w67_c7 + 4.0488 x_w67_c8 + 3.0640 x_w67_c9 + 5.4838 x_w67_c10 + 3.3020 x_w67_c11 + 3.5477 x_w67_c12 + 4.5838 x_w67_c13 + 4.2081 x_w67_c14 + 5.4547 x_w67_c15 + 6.5830 x_w67_c16 + 7.4587 x_w67_c17 + 7.5606 x_w67_c18 + 6.2212 x_w67_c19 + 4.9557 x_w67_c20 + 3.6925 x_w67_c21 + 3.1206 x_w67_c22 + 5.8962 x_w67_c23 + 3.2314 x_w67_c24 + 0.8976 x_w68_c0 + 3.9946 x_w68_c1 + 7.6959 x_w68_c2 + 6.9789 x_w68_c3 + 3.8429 x_w68_c4 + 3.4966 x_w68_c5 + 7.1443 x_w68_c6 + 4.9377 x_w68_c7 + 6.1034 x_w68_c8 + 7.5596 x_w68_c9 + 6.4599 x_w68_c10 + 4.8752 x_w68_c11 + 3.1880 x_w68_c12 + 5.4263 x_w68_c13 + 6.7467 x_w68_c14 + 5.5944 x_w68_c15 + 7.1711 x_w68_c16 + 6.7428 x_w68_c17 + 3.0627 x_w68_c18 + 5.8840 x_w68_c19 + 6.4355 x_w68_c20 + 3.7424 x_w68_c21 + 3.0810 x_w68_c22 + 7.6729 x_w68_c23 + 4.2254 x_w68_c24 + 1.7671 x_w69_c0 + 7.7337 x_w69_c1 + 4.9752 x_w69_c2 + 5.6376 x_w69_c3 + 4.0203 x_w69_c4 + 6.7918 x_w69_c5 + 6.1918 x_w69_c6 + 6.5100 x_w69_c7 + 6.7222 x_w69_c8 + 3.8654 x_w69_c9 + 7.8604 x_w69_c10 + 5.7606 x_w69_c11 + 5.8327 x_w69_c12 + 7.9815 x_w69_c13 + 5.0399 x_w69_c14 + 5.5002 x_w69_c15 + 7.0629 x_w69_c16 + 7.0874 x_w69_c17 + 4.1972 x_w69_c18 + 5.3514 x_w69_c19 + 4.4324 x_w69_c20 + 6.8294 x_w69_c21 + 6.3220 x_w69_c22 + 7.5129 x_w69_c23 + 5.1493 x_w69_c24 + 1.4127 x_w70_c0 + 6.9982 x_w70_c1 + 3.8245 x_w70_c2 + 7.1800 x_w70_c3 + 3.5690 x_w70_c4 + 5.0570 x_w70_c5 + 7.0167 x_w70_c6 + 5.7104 x_w70_c7 + 6.4302 x_w70_c8 + 6.4791 x_w70_c9 + 6.2867 x_w70_c10 + 4.1651 x_w70_c11 + 5.5913 x_w70_c12 + 7.9657 x_w70_c13 + 5.4275 x_w70_c14 + 4.4370 x_w70_c15 + 5.5678 x_w70_c16 + 5.7520 x_w70_c17 + 4.5032 x_w70_c18 + 3.2848 x_w70_c19 + 4.4754 x_w70_c20 + 7.6655 x_w70_c21 + 7.3591 x_w70_c22 + 7.2877 x_w70_c23 + 6.3219 x_w70_c24 + 1.0787 x_w71_c0 + 5.6152 x_w71_c1 + 4.8728 x_w71_c2 + 7.3546 x_w71_c3 + 6.5459 x_w71_c4 + 3.9237 x_w71_c5 + 4.4678 x_w71_c6 + 4.3050 x_w71_c7 + 4.4642 x_w71_c8 + 4.1663 x_w71_c9 + 4.8424 x_w71_c10 + 7.8843 x_w71_c11 + 5.8635 x_w71_c12 + 6.2856 x_w71_c13 + 7.1249 x_w71_c14 + 6.1327 x_w71_c15 + 3.7620 x_w71_c16 + 6.8461 x_w71_c17 + 3.5039 x_w71_c18 + 3.0679 x_w71_c19 + 5.1725 x_w71_c20 + 7.2561 x_w71_c21 + 6.0809 x_w71_c22 + 4.0158 x_w71_c23 + 5.1536 x_w71_c24 + 1.8437 x_w72_c0 + 4.6707 x_w72_c1 + 4.6356 x_w72_c2 + 3.7526 x_w72_c3 + 7.9568 x_w72_c4 + 4.6453 x_w72_c5 + 7.1377 x_w72_c6 + 6.4587 x_w72_c7 + 6.2629 x_w72_c8 + 3.6169 x_w72_c9 + 4.9695 x_w72_c10 + 3.3764 x_w72_c11 + 4.1907 x_w72_c12 + 6.0006 x_w72_c13 + 3.4192 x_w72_c14 + 5.6520 x_w72_c15 + 3.8740 x_w72_c16 + 7.1672 x_w72_c17 + 4.1890 x_w72_c18 + 6.3821 x_w72_c19 + 6.8584 x_w72_c20 + 6.8293 x_w72_c21 + 5.7234 x_w72_c22 + 7.2203 x_w72_c23 + 4.9924 x_w72_c24 + 0.6824 x_w73_c0 + 4.5372 x_w73_c1 + 7.2355 x_w73_c2 + 5.8753 x_w73_c3 + 5.6205 x_w73_c4 + 5.7220 x_w73_c5 + 7.0382 x_w73_c6 + 4.2303 x_w73_c7 + 3.7684 x_w73_c8 + 4.7814 x_w73_c9 + 7.2990 x_w73_c10 + 4.2276 x_w73_c11 + 5.9860 x_w73_c12 + 3.8348 x_w73_c13 + 4.1726 x_w73_c14 + 3.4682 x_w73_c15 + 6.5273 x_w73_c16 + 6.2003 x_w73_c17 + 7.3955 x_w73_c18 + 6.3598 x_w73_c19 + 3.4670 x_w73_c20 + 5.0456 x_w73_c21 + 6.7787 x_w73_c22 + 6.7408 x_w73_c23 + 4.5560 x_w73_c24 + 1.5334 x_w74_c0 + 4.3387 x_w74_c1 + 3.5546 x_w74_c2 + 7.6150 x_w74_c3 + 3.8789 x_w74_c4 + 4.5215 x_w74_c5 + 3.6822 x_w74_c6 + 4.9000 x_w74_c7 + 3.4044 x_w74_c8 + 5.4593 x_w74_c9 + 5.7729 x_w74_c10 + 4.7016 x_w74_c11 + 6.2255 x_w74_c12 + 5.5244 x_w74_c13 + 6.0829 x_w74_c14 + 6.9497 x_w74_c15 + 3.5677 x_w74_c16 + 4.2115 x_w74_c17 + 4.4575 x_w74_c18 + 6.7766 x_w74_c19 + 5.5317 x_w74_c20 + 3.7435 x_w74_c21 + 6.0223 x_w74_c22 + 4.8920 x_w74_c23 + 4.0174 x_w74_c24 + 1.3034 x_w75_c0 + 3.0449 x_w75_c1 + 3.7703 x_w75_c2 + 6.3449 x_w75_c3 + 3.9917 x_w75_c4 + 6.6626 x_w75_c5 + 4.6154 x_w75_c6 + 6.4291 x_w75_c7 + 3.8676 x_w75_c8 + 6.7891 x_w75_c9 + 3.0538 x_w75_c10 + 3.6194 x_w75_c11 + 3.4276 x_w75_c12 + 5.8339 x_w75_c13 + 3.3879 x_w75_c14 + 5.8358 x_w75_c15 + 6.2560 x_w75_c16 + 6.2106 x_w75_c17 + 3.2373 x_w75_c18 + 5.7761 x_w75_c19 + 4.0998 x_w75_c20 + 3.5424 x_w75_c21 + 5.5539 x_w75_c22 + 3.5115 x_w75_c23 + 7.9223 x_w75_c24 + 0.5458 x_w76_c0 + 4.5764 x_w76_c1 + 5.9803 x_w76_c2 + 6.6693 x_w76_c3 + 6.8613 x_w76_c4 + 7.0795 x_w76_c5 + 4.1368 x_w76_c6 + 5.2744 x_w76_c7 + 6.8530 x_w76_c8 + 7.8877 x_w76_c9 + 6.0024 x_w76_c10 + 3.8090 x_w76_c11 + 5.0041 x_w76_c12 + 5.4309 x_w76_c13 + 7.6189 x_w76_c14 + 7.7348 x_w76_c15 + 6.9452 x_w76_c16 + 5.7093 x_w76_c17 + 3.2156 x_w76_c18 + 3.0800 x_w76_c19 + 5.9839 x_w76_c20 + 7.1570 x_w76_c21 + 5.1002 x_w76_c22 + 3.4734 x_w76_c23 + 3.7131 x_w76_c24 + 1.4853 x_w77_c0 + 3.1161 x_w77_c1 + 6.6224 x_w77_c2 + 7.2974 x_w77_c3 + 4.5740 x_w77_c4 + 4.4740 x_w77_c5 + 4.4445 x_w77_c6 + 4.2242 x_w77_c7 + 4.8602 x_w77_c8 + 6.1010 x_w77_c9 + 7.1085 x_w77_c10 + 3.3033 x_w77_c11 + 5.9931 x_w77_c12 + 3.3026 x_w77_c13 + 3.9646 x_w77_c14 + 5.0507 x_w77_c15 + 6.9453 x_w77_c16 + 3.4870 x_w77_c17 + 6.2581 x_w77_c18 + 7.6042 x_w77_c19 + 6.4075 x_w77_c20 + 4.6295 x_w77_c21 + 5.6239 x_w77_c22 + 5.1897 x_w77_c23 + 4.2718 x_w77_c24 + 1.5201 x_w78_c0 + 4.3435 x_w78_c1 + 7.4625 x_w78_c2 + 6.7885 x_w78_c3 + 3.9262 x_w78_c4 + 6.2321 x_w78_c5 + 5.2681 x_w78_c6 + 5.5581 x_w78_c7 + 7.8766 x_w78_c8 + 7.3531 x_w78_c9 + 5.9260 x_w78_c10 + 3.4775 x_w78_c11 + 4.8250 x_w78_c12 + 7.9914 x_w78_c13 + 6.7625 x_w78_c14 + 6.4799 x_w78_c15 + 6.8193 x_w78_c16 + 7.0793 x_w78_c17 + 6.2095 x_w78_c18 + 3.4583 x_w78_c19 + 4.5313 x_w78_c20 + 6.6535 x_w78_c21 + 4.9422 x_w78_c22 + 6.3241 x_w78_c23 + 3.0040 x_w78_c24 + 0.5886 x_w79_c0 + 5.3382 x_w79_c1 + 3.6894 x_w79_c2 + 5.2981 x_w79_c3 + 7.4405 x_w79_c4 + 3.3093 x_w79_c5 + 5.0338 x_w79_c6 + 4.6299 x_w79_c7 + 7.0060 x_w79_c8 + 7.1201 x_w79_c9 + 3.9515 x_w79_c10 + 6.2195 x_w79_c11 + 3.2053 x_w79_c12 + 4.3627 x_w79_c13 + 5.2368 x_w79_c14 + 6.2979 x_w79_c15 + 5.4121 x_w79_c16 + 6.0072 x_w79_c17 + 5.5261 x_w79_c18 + 7.3796 x_w79_c19 + 4.2660 x_w79_c20 + 4.6115 x_w79_c21 + 3.1223 x_w79_c22 + 4.7382 x_w79_c23 + 6.0207 x_w79_c24 + 1.6652 x_w80_c0 + 3.0370 x_w80_c1 + 7.2083 x_w80_c2 + 7.7621 x_w80_c3 + 4.9296 x_w80_c4 + 3.3036 x_w80_c5 + 7.2754 x_w80_c6 + 7.3044 x_w80_c7 + 6.8481 x_w80_c8 + 5.0854 x_w80_c9 + 4.0365 x_w80_c10 + 4.4477 x_w80_c11 + 5.6442 x_w80_c12 + 3.2307 x_w80_c13 + 4.3298 x_w80_c14 + 6.4472 x_w80_c15 + 4.8953 x_w80_c16 + 5.5902 x_w80_c17 + 3.0551 x_w80_c18 + 7.8596 x_w80_c19 + 6.6474 x_w80_c20 + 4.4558 x_w80_c21 + 6.8806 x_w80_c22 + 7.6895 x_w80_c23 + 5.1308 x_w80_c24 + 1.7585 x_w81_c0 + 7.3017 x_w81_c1 + 3.4308 x_w81_c2 + 6.6646 x_w81_c3 + 7.1357 x_w81_c4 + 7.7617 x_w81_c5 + 3.6054 x_w81_c6 + 6.7190 x_w81_c7 + 5.3620 x_w81_c8 + 3.5102 x_w81_c9 + 7.1693 x_w81_c10 + 5.4190 x_w81_c11 + 5.6839 x_w81_c12 + 3.9797 x_w81_c13 + 6.2020 x_w81_c14 + 6.7259 x_w81_c15 + 5.6362 x_w81_c16 + 6.7715 x_w81_c17 + 4.2060 x_w81_c18 + 4.3511 x_w81_c19 + 7.7534 x_w81_c20 + 3.4931 x_w81_c21 + 4.4421 x_w81_c22 + 4.2980 x_w81_c23 + 6.1319 x_w81_c24 + 1.7467 x_w82_c0 + 7.0381 x_w82_c1 + 6.9420 x_w82_c2 + 5.4091 x_w82_c3 + 6.6161 x_w82_c4 + 5.2844 x_w82_c5 + 6.5863 x_w82_c6 + 4.1961 x_w82_c7 + 5.0817 x_w82_c8 + 4.9087 x_w82_c9 + 7.5272 x_w82_c10 + 5.4733 x_w82_c11 + 6.7279 x_w82_c12 + 7.2851 x_w82_c13 + 7.0803 x_w82_c14 + 3.5621 x_w82_c15 + 4.0909 x_w82_c16 + 4.5706 x_w82_c17 + 7.1249 x_w82_c18 + 3.4041 x_w82_c19 + 7.6039 x_w82_c20 + 3.5574 x_w82_c21 + 5.0144 x_w82_c22 + 5.4717 x_w82_c23 + 7.8190 x_w82_c24 + 1.3985 x_w83_c0 + 5.3895 x_w83_c1 + 7.9679 x_w83_c2 + 3.2884 x_w83_c3 + 3.4611 x_w83_c4 + 4.1549 x_w83_c5 + 7.0218 x_w83_c6 + 7.3456 x_w83_c7 + 5.8201 x_w83_c8 + 4.5801 x_w83_c9 + 6.3011 x_w83_c10 + 5.6778 x_w83_c11 + 5.1103 x_w83_c12 + 6.8861 x_w83_c13 + 5.3186 x_w83_c14 + 3.0774 x_w83_c15 + 3.6365 x_w83_c16 + 7.0276 x_w83_c17 + 6.8237 x_w83_c18 + 5.4203 x_w83_c19 + 4.5693 x_w83_c20 + 6.0725 x_w83_c21 + 4.5782 x_w83_c22 + 3.7776 x_w83_c23 + 6.8254 x_w83_c24 + 1.6515 x_w84_c0 + 3.6635 x_w84_c1 + 7.5228 x_w84_c2 + 4.4791 x_w84_c3 + 5.5953 x_w84_c4 + 5.8673 x_w84_c5 + 3.0299 x_w84_c6 + 3.9572 x_w84_c7 + 6.6194 x_w84_c8 + 7.9282 x_w84_c9 + 3.5551 x_w84_c10 + 6.1586 x_w84_c11 + 6.5526 x_w84_c12 + 6.7648 x_w84_c13 + 6.1015 x_w84_c14 + 5.4433 x_w84_c15 + 6.5300 x_w84_c16 + 6.4944 x_w84_c17 + 4.7699 x_w84_c18 + 7.5885 x_w84_c19 + 3.1370 x_w84_c20 + 7.7016 x_w84_c21 + 6.2068 x_w84_c22 + 4.0505 x_w84_c23 + 4.0826 x_w84_c24 + 1.8137 x_w85_c0 + 7.3205 x_w85_c1 + 3.7551 x_w85_c2 + 7.4462 x_w85_c3 + 7.6563 x_w85_c4 + 4.9461 x_w85_c5 + 3.1623 x_w85_c6 + 5.8639 x_w85_c7 + 4.3847 x_w85_c8 + 6.4801 x_w85_c9 + 4.0430 x_w85_c10 + 7.8407 x_w85_c11 + 5.7189 x_w85_c12 + 3.9139 x_w85_c13 + 6.8896 x_w85_c14 + 4.7132 x_w85_c15 + 5.6772 x_w85_c16 + 3.9478 x_w85_c17 + 3.8833 x_w85_c18 + 3.1120 x_w85_c19 + 5.1703 x_w85_c20 + 7.8486 x_w85_c21 + 3.9604 x_w85_c22 + 5.4438 x_w85_c23 + 7.5225 x_w85_c24 + 1.9059 x_w86_c0 + 3.1806 x_w86_c1 + 6.0858 x_w86_c2 + 5.1357 x_w86_c3 + 3.5926 x_w86_c4 + 6.4303 x_w86_c5 + 3.2964 x_w86_c6 + 3.1391 x_w86_c7 + 7.0466 x_w86_c8 + 4.6727 x_w86_c9 + 3.1649 x_w86_c10 + 4.6066 x_w86_c11 + 5.3297 x_w86_c12 + 5.1818 x_w86_c13 + 4.2886 x_w86_c14 + 6.3356 x_w86_c15 + 3.0009 x_w86_c16 + 4.6973 x_w86_c17 + 3.6169 x_w86_c18 + 6.7641 x_w86_c19 + 5.7927 x_w86_c20 + 7.2381 x_w86_c21 + 4.6226 x_w86_c22 + 3.8930 x_w86_c23 + 5.2385 x_w86_c24 + 1.1797 x_w87_c0 + 5.4847 x_w87_c1 + 6.2461 x_w87_c2 + 4.4630 x_w87_c3 + 4.0114 x_w87_c4 + 7.3059 x_w87_c5 + 5.5584 x_w87_c6 + 4.1614 x_w87_c7 + 6.5037 x_w87_c8 + 4.8214 x_w87_c9 + 7.7398 x_w87_c10 + 5.1880 x_w87_c11 + 6.0249 x_w87_c12 + 3.8967 x_w87_c13 + 7.1462 x_w87_c14 + 5.6918 x_w87_c15 + 7.2518 x_w87_c16 + 3.6433 x_w87_c17 + 4.2628 x_w87_c18 + 4.0975 x_w87_c19 + 3.2279 x_w87_c20 + 6.6384 x_w87_c21 + 7.8789 x_w87_c22 + 4.7374 x_w87_c23 + 5.5276 x_w87_c24 + 1.4732 x_w88_c0 + 6.1474 x_w88_c1 + 4.1169 x_w88_c2 + 4.7049 x_w88_c3 + 7.9801 x_w88_c4 + 3.1149 x_w88_c5 + 7.2726 x_w88_c6 + 7.5038 x_w88_c7 + 3.1352 x_w88_c8 + 7.9139 x_w88_c9 + 6.3753 x_w88_c10 + 6.0075 x_w88_c11 + 7.2854 x_w88_c12 + 6.3331 x_w88_c13 + 7.3373 x_w88_c14 + 3.8674 x_w88_c15 + 4.8328 x_w88_c16 + 5.0848 x_w88_c17 + 4.0454 x_w88_c18 + 7.4394 x_w88_c19 + 6.6365 x_w88_c20 + 6.1292 x_w88_c21 + 4.7160 x_w88_c22 + 6.6905 x_w88_c23 + 4.4792 x_w88_c24 + 1.6056 x_w89_c0 + 4.9031 x_w89_c1 + 7.9910 x_w89_c2 + 3.0896 x_w89_c3 + 5.5494 x_w89_c4 + 4.7158 x_w89_c5 + 4.5408 x_w89_c6 + 6.9636 x_w89_c7 + 5.0866 x_w89_c8 + 5.0809 x_w89_c9 + 3.6952 x_w89_c10 + 7.4455 x_w89_c11 + 4.7068 x_w89_c12 + 7.0170 x_w89_c13 + 5.1204 x_w89_c14 + 3.1906 x_w89_c15 + 3.1544 x_w89_c16 + 4.0085 x_w89_c17 + 7.1623 x_w89_c18 + 6.6209 x_w89_c19 + 3.4174 x_w89_c20 + 6.6465 x_w89_c21 + 4.5595 x_w89_c22 + 7.6645 x_w89_c23 + 5.8172 x_w89_c24 + 1.5444 x_w90_c0 + 6.5219 x_w90_c1 + 3.2878 x_w90_c2 + 5.4553 x_w90_c3 + 5.4312 x_w90_c4 + 5.9288 x_w90_c5 + 6.9405 x_w90_c6 + 6.7792 x_w90_c7 + 7.0088 x_w90_c8 + 6.0733 x_w90_c9 + 7.1220 x_w90_c10 + 4.0929 x_w90_c11 + 4.1006 x_w90_c12 + 6.3365 x_w90_c13 + 3.7462 x_w90_c14 + 7.8822 x_w90_c15 + 4.0581 x_w90_c16 + 6.3640 x_w90_c17 + 6.7897 x_w90_c18 + 6.8503 x_w90_c19 + 7.1668 x_w90_c20 + 6.0054 x_w90_c21 + 3.4941 x_w90_c22 + 6.5553 x_w90_c23 + 5.6139 x_w90_c24 + 0.7249 x_w91_c0 + 7.2214 x_w91_c1 + 4.7523 x_w91_c2 + 7.9061 x_w91_c3 + 7.6897 x_w91_c4 + 4.6281 x_w91_c5 + 4.2378 x_w91_c6 + 4.5732 x_w91_c7 + 6.8758 x_w91_c8 + 5.0464 x_w91_c9 + 6.2796 x_w91_c10 + 3.6199 x_w91_c11 + 5.7776 x_w91_c12 + 4.0350 x_w91_c13 + 4.1592 x_w91_c14 + 6.5687 x_w91_c15 + 6.1875 x_w91_c16 + 3.3165 x_w91_c17 + 5.9433 x_w91_c18 + 5.5034 x_w91_c19 + 3.4788 x_w91_c20 + 3.0889 x_w91_c21 + 3.0319 x_w91_c22 + 4.2661 x_w91_c23 + 4.3157 x_w91_c24 + 0.9260 x_w92_c0 + 4.4406 x_w92_c1 + 7.5658 x_w92_c2 + 7.1077 x_w92_c3 + 7.4109 x_w92_c4 + 3.0181 x_w92_c5 + 4.3948 x_w92_c6 + 4.6470 x_w92_c7 + 7.7795 x_w92_c8 + 7.6672 x_w92_c9 + 4.9123 x_w92_c10 + 3.4402 x_w92_c11 + 4.4377 x_w92_c12 + 4.6745 x_w92_c13 + 6.8414 x_w92_c14 + 4.3680 x_w92_c15 + 3.6694 x_w92_c16 + 3.2913 x_w92_c17 + 5.8808 x_w92_c18 + 6.9535 x_w92_c19 + 5.9954 x_w92_c20 + 4.9196 x_w92_c21 + 7.2499 x_w92_c22 + 4.7630 x_w92_c23 + 5.7403 x_w92_c24 + 1.2661 x_w93_c0 + 4.5145 x_w93_c1 + 3.3726 x_w93_c2 + 4.4447 x_w93_c3 + 4.4582 x_w93_c4 + 4.4889 x_w93_c5 + 6.1258 x_w93_c6 + 7.7678 x_w93_c7 + 4.4938 x_w93_c8 + 6.7228 x_w93_c9 + 6.5045 x_w93_c10 + 5.5691 x_w93_c11 + 6.5376 x_w93_c12 + 5.5600 x_w93_c13 + 6.1128 x_w93_c14 + 5.1931 x_w93_c15 + 4.3997 x_w93_c16 + 4.1852 x_w93_c17 + 7.1353 x_w93_c18 + 3.4094 x_w93_c19 + 5.6305 x_w93_c20 + 4.8543 x_w93_c21 + 7.7137 x_w93_c22 + 5.3904 x_w93_c23 + 5.3780 x_w93_c24 + 0.7898 x_w94_c0 + 4.3682 x_w94_c1 + 7.7849 x_w94_c2 + 7.1567 x_w94_c3 + 7.2742 x_w94_c4 + 7.1970 x_w94_c5 + 3.8752 x_w94_c6 + 4.0234 x_w94_c7 + 4.6857 x_w94_c8 + 6.1703 x_w94_c9 + 7.0645 x_w94_c10 + 3.9958 x_w94_c11 + 4.0099 x_w94_c12 + 7.7867 x_w94_c13 + 6.7111 x_w94_c14 + 3.9762 x_w94_c15 + 3.7210 x_w94_c16 + 7.4762 x_w94_c17 + 3.9687 x_w94_c18 + 5.0425 x_w94_c19 + 6.1049 x_w94_c20 + 3.4036 x_w94_c21 + 5.8769 x_w94_c22 + 4.7416 x_w94_c23 + 4.0141 x_w94_c24 + 0.7250 x_w95_c0 + 6.6757 x_w95_c1 + 7.7315 x_w95_c2 + 4.9251 x_w95_c3 + 5.8187 x_w95_c4 + 6.8483 x_w95_c5 + 7.0109 x_w95_c6 + 4.9681 x_w95_c7 + 6.1455 x_w95_c8 + 3.0286 x_w95_c9 + 4.2340 x_w95_c10 + 3.6622 x_w95_c11 + 4.2562 x_w95_c12 + 6.5967 x_w95_c13 + 6.4530 x_w95_c14 + 7.5935 x_w95_c15 + 7.5407 x_w95_c16 + 4.1173 x_w95_c17 + 4.9219 x_w95_c18 + 7.3130 x_w95_c19 + 5.1601 x_w95_c20 + 3.6090 x_w95_c21 + 5.8273 x_w95_c22 + 5.0581 x_w95_c23 + 6.1721 x_w95_c24 + 1.7008 x_w96_c0 + 5.9948 x_w96_c1 + 3.8163 x_w96_c2 + 4.2016 x_w96_c3 + 7.4790 x_w96_c4 + 7.4128 x_w96_c5 + 4.5419 x_w96_c6 + 5.6217 x_w96_c7 + 7.6336 x_w96_c8 + 6.7743 x_w96_c9 + 5.3234 x_w96_c10 + 5.6188 x_w96_c11 + 7.6872 x_w96_c12 + 4.1943 x_w96_c13 + 4.5569 x_w96_c14 + 5.0587 x_w96_c15 + 5.6269 x_w96_c16 + 6.1586 x_w96_c17 + 5.6757 x_w96_c18 + 6.9727 x_w96_c19 + 4.6679 x_w96_c20 + 7.6870 x_w96_c21 + 6.2886 x_w96_c22 + 6.7812 x_w96_c23 + 5.2642 x_w96_c24 + 1.0761 x_w97_c0 + 5.0243 x_w97_c1 + 3.7979 x_w97_c2 + 5.6799 x_w97_c3 + 6.8524 x_w97_c4 + 6.4345 x_w97_c5 + 4.9214 x_w97_c6 + 4.5301 x_w97_c7 + 4.3456 x_w97_c8 + 3.3357 x_w97_c9 + 7.2947 x_w97_c10 + 7.5863 x_w97_c11 + 7.1966 x_w97_c12 + 7.0823 x_w97_c13 + 4.6773 x_w97_c14 + 6.2068 x_w97_c15 + 4.3266 x_w97_c16 + 7.4425 x_w97_c17 + 5.8049 x_w97_c18 + 3.7637 x_w97_c19 + 7.4509 x_w97_c20 + 5.3868 x_w97_c21 + 6.6563 x_w97_c22 + 5.4220 x_w97_c23 + 7.9980 x_w97_c24 + 1.2076 x_w98_c0 + 7.6342 x_w98_c1 + 5.5202 x_w98_c2 + 5.7806 x_w98_c3 + 5.6903 x_w98_c4 + 7.3431 x_w98_c5 + 3.6720 x_w98_c6 + 7.6583 x_w98_c7 + 4.6191 x_w98_c8 + 4.4335 x_w98_c9 + 7.4912 x_w98_c10 + 7.2070 x_w98_c11 + 4.2156 x_w98_c12 + 4.1981 x_w98_c13 + 3.7396 x_w98_c14 + 7.8779 x_w98_c15 + 3.7716 x_w98_c16 + 5.1038 x_w98_c17 + 5.9797 x_w98_c18 + 6.6778 x_w98_c19 + 6.8567 x_w98_c20 + 5.8613 x_w98_c21 + 5.7268 x_w98_c22 + 3.5013 x_w98_c23 + 3.5596 x_w98_c24 + 0.7293 x_w99_c0 + 3.0076 x_w99_c1 + 3.4700 x_w99_c2 + 4.7385 x_w99_c3 + 7.0568 x_w99_c4 + 7.0540 x_w99_c5 + 5.8544 x_w99_c6 + 5.5568 x_w99_c7 + 5.6949 x_w99_c8 + 7.0094 x_w99_c9 + 5.3201 x_w99_c10 + 6.5607 x_w99_c11 + 4.9918 x_w99_c12 + 4.7538 x_w99_c13 + 5.4175 x_w99_c14 + 3.2305 x_w99_c15 + 5.7479 x_w99_c16 + 6.6748 x_w99_c17 + 3.4958 x_w99_c18 + 7.5510 x_w99_c19 + 6.0568 x_w99_c20 + 4.2606 x_w99_c21 + 5.0688 x_w99_c22 + 4.5656 x_w99_c23 + 3.2998 x_w99_c24 + 1.8058 x_w100_c0 + 7.7340 x_w100_c1 + 5.7072 x_w100_c2 + 7.1186 x_w100_c3 + 6.8136 x_w100_c4 + 5.0274 x_w100_c5 + 4.9109 x_w100_c6 + 3.7980 x_w100_c7 + 6.2669 x_w100_c8 + 4.1140 x_w100_c9 + 7.8964 x_w100_c10 + 4.7437 x_w100_c11 + 5.1445 x_w100_c12 + 4.3175 x_w100_c13 + 6.5387 x_w100_c14 + 5.5107 x_w100_c15 + 4.2561 x_w100_c16 + 4.3716 x_w100_c17 + 4.5923 x_w100_c18 + 7.2509 x_w100_c19 + 7.3203 x_w100_c20 + 7.1585 x_w100_c21 + 7.4858 x_w100_c22 + 3.1162 x_w100_c23 + 7.0389 x_w100_c24 + 0.9314 x_w101_c0 + 5.2860 x_w101_c1 + 4.4659 x_w101_c2 + 3.9251 x_w101_c3 + 4.7769 x_w101_c4 + 3.4558 x_w101_c5 + 5.4543 x_w101_c6 + 3.3612 x_w101_c7 + 7.4455 x_w101_c8 + 4.4937 x_w101_c9 + 7.4186 x_w101_c10 + 7.2634 x_w101_c11 + 4.3459 x_w101_c12 + 3.1827 x_w101_c13 + 5.8861 x_w101_c14 + 7.5308 x_w101_c15 + 3.4205 x_w101_c16 + 3.8301 x_w101_c17 + 5.7038 x_w101_c18 + 5.9505 x_w101_c19 + 4.2753 x_w101_c20 + 5.5856 x_w101_c21 + 4.2891 x_w101_c22 + 5.9495 x_w101_c23 + 6.2301 x_w101_c24 + 0.5190 x_w102_c0 + 5.6733 x_w102_c1 + 6.9505 x_w102_c2 + 3.9743 x_w102_c3 + 6.0387 x_w102_c4 + 4.7200 x_w102_c5 + 6.6487 x_w102_c6 + 3.9774 x_w102_c7 + 6.5666 x_w102_c8 + 3.7786 x_w102_c9 + 5.3028 x_w102_c10 + 3.2669 x_w102_c11 + 4.8162 x_w102_c12 + 5.5012 x_w102_c13 + 6.9221 x_w102_c14 + 6.7297 x_w102_c15 + 6.5794 x_w102_c16 + 3.9350 x_w102_c17 + 4.1126 x_w102_c18 + 4.5321 x_w102_c19 + 7.1345 x_w102_c20 + 7.7831 x_w102_c21 + 3.9508 x_w102_c22 + 4.6037 x_w102_c23 + 7.9536 x_w102_c24 + 0.7206 x_w103_c0 + 4.3966 x_w103_c1 + 7.8670 x_w103_c2 + 4.1119 x_w103_c3 + 3.6400 x_w103_c4 + 3.6657 x_w103_c5 + 3.5477 x_w103_c6 + 3.8698 x_w103_c7 + 5.9189 x_w103_c8 + 5.1358 x_w103_c9 + 5.2231 x_w103_c10 + 6.8930 x_w103_c11 + 7.7467 x_w103_c12 + 4.6826 x_w103_c13 + 4.3198 x_w103_c14 + 5.6999 x_w103_c15 + 3.0359 x_w103_c16 + 7.8554 x_w103_c17 + 3.9682 x_w103_c18 + 4.9615 x_w103_c19 + 5.5578 x_w103_c20 + 3.4389 x_w103_c21 + 7.3837 x_w103_c22 + 3.7110 x_w103_c23 + 5.3413 x_w103_c24 + 1.5521 x_w104_c0 + 6.5805 x_w104_c1 + 6.7325 x_w104_c2 + 4.3701 x_w104_c3 + 3.2093 x_w104_c4 + 3.5000 x_w104_c5 + 3.0514 x_w104_c6 + 3.6155 x_w104_c7 + 7.3619 x_w104_c8 + 4.0142 x_w104_c9 + 6.3587 x_w104_c10 + 5.9243 x_w104_c11 + 3.1136 x_w104_c12 + 6.9332 x_w104_c13 + 5.3920 x_w104_c14 + 7.3909 x_w104_c15 + 4.0229 x_w104_c16 + 6.9436 x_w104_c17 + 3.0248 x_w104_c18 + 7.1026 x_w104_c19 + 3.2372 x_w104_c20 + 5.5221 x_w104_c21 + 3.5744 x_w104_c22 + 4.2308 x_w104_c23 + 6.6924 x_w104_c24 + 0.8010 x_w105_c0 + 5.2371 x_w105_c1 + 6.3898 x_w105_c2 + 6.6339 x_w105_c3 + 5.7409 x_w105_c4 + 5.9156 x_w105_c5 + 6.0143 x_w105_c6 + 6.3205 x_w105_c7 + 3.8774 x_w105_c8 + 4.6815 x_w105_c9 + 7.7891 x_w105_c10 + 4.2160 x_w105_c11 + 4.6562 x_w105_c12 + 3.7386 x_w105_c13 + 3.0224 x_w105_c14 + 4.0340 x_w105_c15 + 4.6821 x_w105_c16 + 3.6522 x_w105_c17 + 6.8289 x_w105_c18 + 3.1528 x_w105_c19 + 3.2762 x_w105_c20 + 7.4968 x_w105_c21 + 3.4759 x_w105_c22 + 5.9722 x_w105_c23 + 4.4032 x_w105_c24 + 1.7560 x_w106_c0 + 6.4180 x_w106_c1 + 6.7099 x_w106_c2 + 4.8563 x_w106_c3 + 6.7898 x_w106_c4 + 5.2747 x_w106_c5 + 7.4324 x_w106_c6 + 4.5789 x_w106_c7 + 6.2123 x_w106_c8 + 7.1041 x_w106_c9 + 7.3780 x_w106_c10 + 3.3380 x_w106_c11 + 7.2068 x_w106_c12 + 4.2169 x_w106_c13 + 7.4293 x_w106_c14 + 4.0560 x_w106_c15 + 5.3920 x_w106_c16 + 3.7189 x_w106_c17 + 7.8819 x_w106_c18 + 7.7569 x_w106_c19 + 7.4600 x_w106_c20 + 7.3340 x_w106_c21 + 7.2003 x_w106_c22 + 4.3434 x_w106_c23 + 6.6693 x_w106_c24 + 0.6395 x_w107_c0 + 3.1079 x_w107_c1 + 3.3946 x_w107_c2 + 6.5699 x_w107_c3 + 6.6916 x_w107_c4 + 6.0454 x_w107_c5 + 7.6816 x_w107_c6 + 6.1172 x_w107_c7 + 6.1649 x_w107_c8 + 5.1459 x_w107_c9 + 3.0122 x_w107_c10 + 5.9653 x_w107_c11 + 4.3482 x_w107_c12 + 4.6719 x_w107_c13 + 7.3446 x_w107_c14 + 4.6637 x_w107_c15 + 6.3852 x_w107_c16 + 7.1168 x_w107_c17 + 4.1146 x_w107_c18 + 7.5276 x_w107_c19 + 6.7711 x_w107_c20 + 7.3755 x_w107_c21 + 4.4389 x_w107_c22 + 7.4646 x_w107_c23 + 3.4357 x_w107_c24 + 1.5823 x_w108_c0 + 7.7388 x_w108_c1 + 6.8920 x_w108_c2 + 7.6816 x_w108_c3 + 5.4322 x_w108_c4 + 5.3670 x_w108_c5 + 7.8465 x_w108_c6 + 3.1955 x_w108_c7 + 7.2539 x_w108_c8 + 4.7835 x_w108_c9 + 3.7534 x_w108_c10 + 4.4747 x_w108_c11 + 7.2144 x_w108_c12 + 7.9376 x_w108_c13 + 3.6358 x_w108_c14 + 5.9189 x_w108_c15 + 3.6353 x_w108_c16 + 4.8347 x_w108_c17 + 7.1828 x_w108_c18 + 7.9902 x_w108_c19 + 4.1548 x_w108_c20 + 4.4406 x_w108_c21 + 7.4845 x_w108_c22 + 3.6173 x_w108_c23 + 4.3449 x_w108_c24 + 1.6923 x_w109_c0 + 3.5984 x_w109_c1 + 3.9460 x_w109_c2 + 5.2272 x_w109_c3 + 6.5560 x_w109_c4 + 7.9874 x_w109_c5 + 7.5266 x_w109_c6 + 5.9691 x_w109_c7 + 4.9689 x_w109_c8 + 4.4014 x_w109_c9 + 5.0253 x_w109_c10 + 4.2547 x_w109_c11 + 3.4448 x_w109_c12 + 7.8322 x_w109_c13 + 4.8194 x_w109_c14 + 4.8862 x_w109_c15 + 6.0025 x_w109_c16 + 4.6702 x_w109_c17 + 6.4692 x_w109_c18 + 5.7981 x_w109_c19 + 4.8213 x_w109_c20 + 3.0290 x_w109_c21 + 6.9708 x_w109_c22 + 4.4621 x_w109_c23 + 7.2214 x_w109_c24 + 1.0289 x_w110_c0 + 5.1556 x_w110_c1 + 3.9322 x_w110_c2 + 3.4117 x_w110_c3 + 3.8826 x_w110_c4 + 3.4324 x_w110_c5 + 3.1698 x_w110_c6 + 6.8569 x_w110_c7 + 7.3755 x_w110_c8 + 5.6469 x_w110_c9 + 7.3981 x_w110_c10 + 3.3871 x_w110_c11 + 6.5313 x_w110_c12 + 6.6533 x_w110_c13 + 7.6662 x_w110_c14 + 5.3809 x_w110_c15 + 7.4384 x_w110_c16 + 5.3043 x_w110_c17 + 4.7728 x_w110_c18 + 4.1519 x_w110_c19 + 3.2104 x_w110_c20 + 4.8951 x_w110_c21 + 6.1279 x_w110_c22 + 5.8121 x_w110_c23 + 6.7430 x_w110_c24 + 1.9221 x_w111_c0 + 7.7124 x_w111_c1 + 3.2615 x_w111_c2 + 5.3807 x_w111_c3 + 5.0575 x_w111_c4 + 7.2329 x_w111_c5 + 5.2766 x_w111_c6 + 5.0729 x_w111_c7 + 6.5458 x_w111_c8 + 4.9091 x_w111_c9 + 7.0713 x_w111_c10 + 7.2947 x_w111_c11 + 3.0071 x_w111_c12 + 7.2159 x_w111_c13 + 7.7063 x_w111_c14 + 5.9938 x_w111_c15 + 4.2576 x_w111_c16 + 7.5500 x_w111_c17 + 4.5347 x_w111_c18 + 6.1530 x_w111_c19 + 7.2321 x_w111_c20 + 7.5620 x_w111_c21 + 7.8506 x_w111_c22 + 7.5797 x_w111_c23 + 6.5353 x_w111_c24 + 1.6032 x_w112_c0 + 3.9335 x_w112_c1 + 4.3611 x_w112_c2 + 6.7623 x_w112_c3 + 4.7546 x_w112_c4 + 7.6593 x_w112_c5 + 7.4176 x_w112_c6 + 6.5997 x_w112_c7 + 7.7364 x_w112_c8 + 5.1888 x_w112_c9 + 7.8178 x_w112_c10 + 6.2862 x_w112_c11 + 6.8278 x_w112_c12 + 7.8177 x_w112_c13 + 4.9634 x_w112_c14 + 3.9917 x_w112_c15 + 6.9516 x_w112_c16 + 6.7415 x_w112_c17 + 6.1609 x_w112_c18 + 6.6021 x_w112_c19 + 3.7964 x_w112_c20 + 4.7269 x_w112_c21 + 3.2285 x_w112_c22 + 7.4687 x_w112_c23 + 3.3651 x_w112_c24 + 1.6716 x_w113_c0 + 3.8667 x_w113_c1 + 6.3166 x_w113_c2 + 6.4621 x_w113_c3 + 5.4947 x_w113_c4 + 7.6541 x_w113_c5 + 5.1264 x_w113_c6 + 7.1086 x_w113_c7 + 6.4094 x_w113_c8 + 5.1883 x_w113_c9 + 6.4809 x_w113_c10 + 5.7849 x_w113_c11 + 5.9941 x_w113_c12 + 4.6375 x_w113_c13 + 4.0262 x_w113_c14 + 4.5557 x_w113_c15 + 5.7411 x_w113_c16 + 4.6768 x_w113_c17 + 5.1126 x_w113_c18 + 7.7079 x_w113_c19 + 5.1447 x_w113_c20 + 6.4693 x_w113_c21 + 5.7635 x_w113_c22 + 6.3925 x_w113_c23 + 6.6687 x_w113_c24 + 1.6854 x_w114_c0 + 6.2922 x_w114_c1 + 7.8667 x_w114_c2 + 3.0420 x_w114_c3 + 7.9820 x_w114_c4 + 6.6461 x_w114_c5 + 5.9251 x_w114_c6 + 5.0023 x_w114_c7 + 4.9610 x_w114_c8 + 3.2553 x_w114_c9 + 4.9211 x_w114_c10 + 4.3777 x_w114_c11 + 3.3778 x_w114_c12 + 7.4719 x_w114_c13 + 5.4875 x_w114_c14 + 3.5443 x_w114_c15 + 3.9164 x_w114_c16 + 5.4568 x_w114_c17 + 7.2827 x_w114_c18 + 6.4948 x_w114_c19 + 5.2505 x_w114_c20 + 3.3161 x_w114_c21 + 5.5518 x_w114_c22 + 3.5189 x_w114_c23 + 7.2437 x_w114_c24 + 0.8770 x_w115_c0 + 5.1609 x_w115_c1 + 4.0802 x_w115_c2 + 3.6101 x_w115_c3 + 7.2400 x_w115_c4 + 6.2562 x_w115_c5 + 3.8832 x_w115_c6 + 3.3686 x_w115_c7 + 5.2809 x_w115_c8 + 4.1386 x_w115_c9 + 5.8535 x_w115_c10 + 5.5610 x_w115_c11 + 7.4584 x_w115_c12 + 5.5233 x_w115_c13 + 5.6382 x_w115_c14 + 3.1279 x_w115_c15 + 4.3261 x_w115_c16 + 4.3512 x_w115_c17 + 6.6381 x_w115_c18 + 3.0809 x_w115_c19 + 7.8861 x_w115_c20 + 7.1363 x_w115_c21 + 3.5992 x_w115_c22 + 3.8431 x_w115_c23 + 6.2788 x_w115_c24 + 1.7430 x_w116_c0 + 6.6959 x_w116_c1 + 6.3982 x_w116_c2 + 4.7067 x_w116_c3 + 4.5904 x_w116_c4 + 4.6124 x_w116_c5 + 5.7969 x_w116_c6 + 3.0835 x_w116_c7 + 4.4264 x_w116_c8 + 6.2060 x_w116_c9 + 3.0062 x_w116_c10 + 6.0691 x_w116_c11 + 6.6516 x_w116_c12 + 6.0871 x_w116_c13 + 3.0075 x_w116_c14 + 4.7406 x_w116_c15 + 5.5276 x_w116_c16 + 6.4328 x_w116_c17 + 6.1402 x_w116_c18 + 3.8194 x_w116_c19 + 4.4885 x_w116_c20 + 3.5009 x_w116_c21 + 5.4057 x_w116_c22 + 5.6415 x_w116_c23 + 4.3909 x_w116_c24 + 1.8715 x_w117_c0 + 5.5713 x_w117_c1 + 4.4359 x_w117_c2 + 6.2082 x_w117_c3 + 5.3373 x_w117_c4 + 7.0061 x_w117_c5 + 5.4463 x_w117_c6 + 7.2954 x_w117_c7 + 4.0778 x_w117_c8 + 7.4565 x_w117_c9 + 4.6453 x_w117_c10 + 6.5545 x_w117_c11 + 5.9637 x_w117_c12 + 5.5318 x_w117_c13 + 5.7389 x_w117_c14 + 6.0962 x_w117_c15 + 7.3016 x_w117_c16 + 3.6134 x_w117_c17 + 3.5491 x_w117_c18 + 3.0452 x_w117_c19 + 5.3757 x_w117_c20 + 7.5417 x_w117_c21 + 6.8121 x_w117_c22 + 6.6034 x_w117_c23 + 7.2540 x_w117_c24 + 0.7896 x_w118_c0 + 5.8223 x_w118_c1 + 4.7671 x_w118_c2 + 3.9639 x_w118_c3 + 5.4109 x_w118_c4 + 6.3169 x_w118_c5 + 3.2673 x_w118_c6 + 5.3553 x_w118_c7 + 7.2078 x_w118_c8 + 7.5250 x_w118_c9 + 6.3139 x_w118_c10 + 5.7349 x_w118_c11 + 5.4920 x_w118_c12 + 4.6991 x_w118_c13 + 6.7066 x_w118_c14 + 6.1795 x_w118_c15 + 7.9727 x_w118_c16 + 5.3246 x_w118_c17 + 7.2632 x_w118_c18 + 6.5373 x_w118_c19 + 5.2268 x_w118_c20 + 3.1879 x_w118_c21 + 7.9568 x_w118_c22 + 3.0403 x_w118_c23 + 5.3496 x_w118_c24 + 1.0917 x_w119_c0 + 4.4387 x_w119_c1 + 5.7107 x_w119_c2 + 7.2883 x_w119_c3 + 4.6793 x_w119_c4 + 3.5296 x_w119_c5 + 5.5975 x_w119_c6 + 3.0577 x_w119_c7 + 7.8107 x_w119_c8 + 6.5386 x_w119_c9 + 3.9740 x_w119_c10 + 7.7197 x_w119_c11 + 3.9054 x_w119_c12 + 4.0552 x_w119_c13 + 4.5661 x_w119_c14 + 7.2111 x_w119_c15 + 6.7748 x_w119_c16 + 6.5328 x_w119_c17 + 6.3453 x_w119_c18 + 4.2770 x_w119_c19 + 3.3552 x_w119_c20 + 5.3947 x_w119_c21 + 6.3859 x_w119_c22 + 7.2810 x_w119_c23 + 5.4253 x_w119_c24 + 1.3207 x_w120_c0 + 6.3619 x_w120_c1 + 5.4326 x_w120_c2 + 7.9205 x_w120_c3 + 3.3387 x_w120_c4 + 4.8363 x_w120_c5 + 6.3231 x_w120_c6 + 4.0513 x_w120_c7 + 7.0536 x_w120_c8 + 7.8942 x_w120_c9 + 3.0543 x_w120_c10 + 6.3036 x_w120_c11 + 3.5486 x_w120_c12 + 3.0088 x_w120_c13 + 3.6086 x_w120_c14 + 6.9207 x_w120_c15 + 4.9383 x_w120_c16 + 5.2691 x_w120_c17 + 5.8170 x_w120_c18 + 4.4364 x_w120_c19 + 5.0243 x_w120_c20 + 5.2383 x_w120_c21 + 4.3217 x_w120_c22 + 5.0237 x_w120_c23 + 4.6012 x_w120_c24 + 1.4314 x_w121_c0 + 5.1106 x_w121_c1 + 4.1488 x_w121_c2 + 7.3399 x_w121_c3 + 5.6354 x_w121_c4 + 3.4379 x_w121_c5 + 4.1121 x_w121_c6 + 5.8424 x_w121_c7 + 5.2366 x_w121_c8 + 4.2479 x_w121_c9 + 6.3864 x_w121_c10 + 7.6700 x_w121_c11 + 7.2071 x_w121_c12 + 4.4766 x_w121_c13 + 7.1847 x_w121_c14 + 3.2969 x_w121_c15 + 4.4120 x_w121_c16 + 7.5850 x_w121_c17 + 5.8165 x_w121_c18 + 6.6818 x_w121_c19 + 7.0556 x_w121_c20 + 6.0260 x_w121_c21 + 4.2456 x_w121_c22 + 7.3529 x_w121_c23 + 7.7498 x_w121_c24 + 1.9235 x_w122_c0 + 7.3207 x_w122_c1 + 5.4786 x_w122_c2 + 7.0006 x_w122_c3 + 4.2632 x_w122_c4 + 4.5777 x_w122_c5 + 7.0959 x_w122_c6 + 5.1167 x_w122_c7 + 4.7228 x_w122_c8 + 6.5422 x_w122_c9 + 3.0367 x_w122_c10 + 3.3879 x_w122_c11 + 5.1815 x_w122_c12 + 4.6460 x_w122_c13 + 7.8722 x_w122_c14 + 4.7773 x_w122_c15 + 3.0747 x_w122_c16 + 4.1299 x_w122_c17 + 6.4405 x_w122_c18 + 5.5397 x_w122_c19 + 3.4369 x_w122_c20 + 3.1140 x_w122_c21 + 7.5649 x_w122_c22 + 3.3993 x_w122_c23 + 3.4350 x_w122_c24 + 1.0050 x_w123_c0 + 5.7684 x_w123_c1 + 6.3821 x_w123_c2 + 6.5807 x_w123_c3 + 4.9714 x_w123_c4 + 3.1958 x_w123_c5 + 7.3681 x_w123_c6 + 3.6646 x_w123_c7 + 6.7316 x_w123_c8 + 3.4120 x_w123_c9 + 5.4601 x_w123_c10 + 7.6104 x_w123_c11 + 3.4562 x_w123_c12 + 6.9676 x_w123_c13 + 5.4361 x_w123_c14 + 7.8969 x_w123_c15 + 3.1739 x_w123_c16 + 4.4267 x_w123_c17 + 7.4325 x_w123_c18 + 5.5983 x_w123_c19 + 5.1932 x_w123_c20 + 4.3934 x_w123_c21 + 7.3753 x_w123_c22 + 4.7855 x_w123_c23 + 4.3624 x_w123_c24 + 0.5607 x_w124_c0 + 4.5873 x_w124_c1 + 5.2307 x_w124_c2 + 6.2862 x_w124_c3 + 6.0358 x_w124_c4 + 4.5202 x_w124_c5 + 5.3480 x_w124_c6 + 4.1969 x_w124_c7 + 6.5954 x_w124_c8 + 4.0129 x_w124_c9 + 5.3454 x_w124_c10 + 4.0197 x_w124_c11 + 4.1498 x_w124_c12 + 3.0717 x_w124_c13 + 7.9345 x_w124_c14 + 6.5045 x_w124_c15 + 4.6886 x_w124_c16 + 5.9788 x_w124_c17 + 6.5608 x_w124_c18 + 5.6406 x_w124_c19 + 7.6021 x_w124_c20 + 4.5165 x_w124_c21 + 3.5615 x_w124_c22 + 7.1485 x_w124_c23 + 6.4896 x_w124_c24 + 1.0067 x_w125_c0 + 3.3510 x_w125_c1 + 6.4101 x_w125_c2 + 7.7544 x_w125_c3 + 7.9422 x_w125_c4 + 7.2599 x_w125_c5 + 5.7573 x_w125_c6 + 4.2891 x_w125_c7 + 3.2571 x_w125_c8 + 3.8767 x_w125_c9 + 7.7085 x_w125_c10 + 7.8860 x_w125_c11 + 4.1271 x_w125_c12 + 4.3425 x_w125_c13 + 4.2169 x_w125_c14 + 5.4576 x_w125_c15 + 7.7154 x_w125_c16 + 3.8867 x_w125_c17 + 6.4861 x_w125_c18 + 5.9164 x_w125_c19 + 7.7411 x_w125_c20 + 3.6222 x_w125_c21 + 4.6398 x_w125_c22 + 5.9686 x_w125_c23 + 4.1419 x_w125_c24 + 1.2919 x_w126_c0 + 7.1803 x_w126_c1 + 3.7037 x_w126_c2 + 6.1086 x_w126_c3 + 7.5084 x_w126_c4 + 4.9841 x_w126_c5 + 4.6858 x_w126_c6 + 4.2548 x_w126_c7 + 6.5182 x_w126_c8 + 7.3214 x_w126_c9 + 5.1804 x_w126_c10 + 4.3634 x_w126_c11 + 3.4769 x_w126_c12 + 6.5128 x_w126_c13 + 3.2367 x_w126_c14 + 4.6961 x_w126_c15 + 7.5019 x_w126_c16 + 5.6530 x_w126_c17 + 5.2195 x_w126_c18 + 6.5277 x_w126_c19 + 6.2805 x_w126_c20 + 6.2361 x_w126_c21 + 7.1862 x_w126_c22 + 7.7473 x_w126_c23 + 6.3349 x_w126_c24 + 0.8836 x_w127_c0 + 4.5104 x_w127_c1 + 5.9021 x_w127_c2 + 7.0906 x_w127_c3 + 3.8829 x_w127_c4 + 5.0052 x_w127_c5 + 6.7712 x_w127_c6 + 7.4516 x_w127_c7 + 4.8134 x_w127_c8 + 7.8946 x_w127_c9 + 3.2127 x_w127_c10 + 7.3831 x_w127_c11 + 6.9441 x_w127_c12 + 5.2238 x_w127_c13 + 4.3528 x_w127_c14 + 5.3175 x_w127_c15 + 7.1023 x_w127_c16 + 3.8878 x_w127_c17 + 6.9278 x_w127_c18 + 4.9308 x_w127_c19 + 7.4094 x_w127_c20 + 6.8866 x_w127_c21 + 4.2567 x_w127_c22 + 4.9620 x_w127_c23 + 7.4135 x_w127_c24 + 1.2725 x_w128_c0 + 3.6389 x_w128_c1 + 5.5169 x_w128_c2 + 6.6600 x_w128_c3 + 7.7017 x_w128_c4 + 5.4606 x_w128_c5 + 5.8419 x_w128_c6 + 6.9168 x_w128_c7 + 6.9572 x_w128_c8 + 6.5528 x_w128_c9 + 4.4026 x_w128_c10 + 7.4529 x_w128_c11 + 6.2759 x_w128_c12 + 5.0573 x_w128_c13 + 3.8194 x_w128_c14 + 6.5373 x_w128_c15 + 5.5525 x_w128_c16 + 7.2221 x_w128_c17 + 7.3493 x_w128_c18 + 3.0648 x_w128_c19 + 3.7762 x_w128_c20 + 4.5844 x_w128_c21 + 5.6049 x_w128_c22 + 3.5163 x_w128_c23 + 7.2138 x_w128_c24 + 0.8981 x_w129_c0 + 4.5343 x_w129_c1 + 5.0129 x_w129_c2 + 6.6215 x_w129_c3 + 4.0731 x_w129_c4 + 3.5233 x_w129_c5 + 3.9152 x_w129_c6 + 4.4824 x_w129_c7 + 7.9198 x_w129_c8 + 5.0891 x_w129_c9 + 6.5624 x_w129_c10 + 3.5428 x_w129_c11 + 3.2094 x_w129_c12 + 3.2560 x_w129_c13 + 3.0521 x_w129_c14 + 5.2633 x_w129_c15 + 7.3796 x_w129_c16 + 5.1526 x_w129_c17 + 7.6094 x_w129_c18 + 4.6305 x_w129_c19 + 4.8842 x_w129_c20 + 4.0412 x_w129_c21 + 4.7115 x_w129_c22 + 4.6415 x_w129_c23 + 6.6131 x_w129_c24 + 1.5745 x_w130_c0 + 7.6660 x_w130_c1 + 5.5293 x_w130_c2 + 4.6725 x_w130_c3 + 6.3975 x_w130_c4 + 4.4842 x_w130_c5 + 4.0311 x_w130_c6 + 3.1985 x_w130_c7 + 3.5655 x_w130_c8 + 7.0731 x_w130_c9 + 6.9736 x_w130_c10 + 6.4370 x_w130_c11 + 4.3821 x_w130_c12 + 4.3503 x_w130_c13 + 5.5032 x_w130_c14 + 7.3652 x_w130_c15 + 6.8817 x_w130_c16 + 6.5405 x_w130_c17 + 7.8068 x_w130_c18 + 7.9439 x_w130_c19 + 7.4233 x_w130_c20 + 5.3533 x_w130_c21 + 3.1685 x_w130_c22 + 6.3945 x_w130_c23 + 3.9615 x_w130_c24 + 1.1186 x_w131_c0 + 4.8509 x_w131_c1 + 4.1817 x_w131_c2 + 5.1953 x_w131_c3 + 3.8798 x_w131_c4 + 4.6120 x_w131_c5 + 6.5581 x_w131_c6 + 6.5566 x_w131_c7 + 3.1342 x_w131_c8 + 4.4847 x_w131_c9 + 4.1987 x_w131_c10 + 5.2879 x_w131_c11 + 6.5352 x_w131_c12 + 4.8083 x_w131_c13 + 7.7110 x_w131_c14 + 5.9625 x_w131_c15 + 6.1411 x_w131_c16 + 5.5949 x_w131_c17 + 6.6084 x_w131_c18 + 4.4231 x_w131_c19 + 6.6560 x_w131_c20 + 3.4350 x_w131_c21 + 4.4872 x_w131_c22 + 7.4496 x_w131_c23 + 7.4543 x_w131_c24 + 1.2178 x_w132_c0 + 3.6582 x_w132_c1 + 7.5193 x_w132_c2 + 6.7791 x_w132_c3 + 7.1945 x_w132_c4 + 7.0418 x_w132_c5 + 6.2297 x_w132_c6 + 3.8740 x_w132_c7 + 6.8365 x_w132_c8 + 3.9708 x_w132_c9 + 4.2324 x_w132_c10 + 4.3002 x_w132_c11 + 6.3072 x_w132_c12 + 7.0456 x_w132_c13 + 5.2675 x_w132_c14 + 4.4311 x_w132_c15 + 6.6822 x_w132_c16 + 5.7889 x_w132_c17 + 6.0402 x_w132_c18 + 6.2010 x_w132_c19 + 7.5037 x_w132_c20 + 6.8833 x_w132_c21 + 3.9418 x_w132_c22 + 4.7700 x_w132_c23 + 4.2141 x_w132_c24 + 0.9618 x_w133_c0 + 3.1894 x_w133_c1 + 3.1389 x_w133_c2 + 4.4982 x_w133_c3 + 3.6480 x_w133_c4 + 4.4320 x_w133_c5 + 4.4875 x_w133_c6 + 4.7063 x_w133_c7 + 3.8037 x_w133_c8 + 5.3765 x_w133_c9 + 6.2792 x_w133_c10 + 3.7453 x_w133_c11 + 5.4656 x_w133_c12 + 7.8966 x_w133_c13 + 7.2172 x_w133_c14 + 3.6215 x_w133_c15 + 3.7696 x_w133_c16 + 3.6345 x_w133_c17 + 7.0932 x_w133_c18 + 7.8277 x_w133_c19 + 6.5239 x_w133_c20 + 7.1977 x_w133_c21 + 5.7421 x_w133_c22 + 6.4714 x_w133_c23 + 7.6702 x_w133_c24 + 1.5271 x_w134_c0 + 6.2387 x_w134_c1 + 7.4572 x_w134_c2 + 7.9085 x_w134_c3 + 3.0230 x_w134_c4 + 5.5739 x_w134_c5 + 3.0324 x_w134_c6 + 3.5954 x_w134_c7 + 5.7693 x_w134_c8 + 6.8534 x_w134_c9 + 3.8399 x_w134_c10 + 6.8930 x_w134_c11 + 6.2783 x_w134_c12 + 4.3284 x_w134_c13 + 7.0367 x_w134_c14 + 4.8972 x_w134_c15 + 6.9305 x_w134_c16 + 4.0115 x_w134_c17 + 7.5025 x_w134_c18 + 3.2164 x_w134_c19 + 4.5091 x_w134_c20 + 3.7560 x_w134_c21 + 5.6158 x_w134_c22 + 3.7266 x_w134_c23 + 7.0317 x_w134_c24 + 1.3974 x_w135_c0 + 4.1315 x_w135_c1 + 7.6313 x_w135_c2 + 6.7917 x_w135_c3 + 5.9079 x_w135_c4 + 5.4526 x_w135_c5 + 3.5373 x_w135_c6 + 5.3172 x_w135_c7 + 5.3522 x_w135_c8 + 4.3068 x_w135_c9 + 6.1671 x_w135_c10 + 7.3055 x_w135_c11 + 4.3846 x_w135_c12 + 3.1566 x_w135_c13 + 7.4108 x_w135_c14 + 5.8955 x_w135_c15 + 7.4602 x_w135_c16 + 7.7347 x_w135_c17 + 5.4630 x_w135_c18 + 4.0972 x_w135_c19 + 4.8486 x_w135_c20 + 7.5126 x_w135_c21 + 7.4620 x_w135_c22 + 3.9086 x_w135_c23 + 7.2805 x_w135_c24 + 1.8579 x_w136_c0 + 7.3813 x_w136_c1 + 3.7092 x_w136_c2 + 3.4442 x_w136_c3 + 7.5766 x_w136_c4 + 4.0486 x_w136_c5 + 5.5451 x_w136_c6 + 6.5356 x_w136_c7 + 5.1316 x_w136_c8 + 3.3714 x_w136_c9 + 3.4790 x_w136_c10 + 7.8134 x_w136_c11 + 3.4713 x_w136_c12 + 6.2953 x_w136_c13 + 7.0934 x_w136_c14 + 5.4119 x_w136_c15 + 5.7920 x_w136_c16 + 6.6171 x_w136_c17 + 7.7289 x_w136_c18 + 6.4074 x_w136_c19 + 4.1973 x_w136_c20 + 6.0492 x_w136_c21 + 4.3142 x_w136_c22 + 5.9013 x_w136_c23 + 3.5643 x_w136_c24 + 1.8816 x_w137_c0 + 7.7726 x_w137_c1 + 5.7422 x_w137_c2 + 7.9939 x_w137_c3 + 4.9374 x_w137_c4 + 4.2335 x_w137_c5 + 7.2572 x_w137_c6 + 7.0670 x_w137_c7 + 4.6637 x_w137_c8 + 6.8487 x_w137_c9 + 7.1012 x_w137_c10 + 7.0672 x_w137_c11 + 4.6466 x_w137_c12 + 5.5234 x_w137_c13 + 6.9495 x_w137_c14 + 3.0468 x_w137_c15 + 7.5510 x_w137_c16 + 6.9906 x_w137_c17 + 6.2192 x_w137_c18 + 3.1494 x_w137_c19 + 3.1470 x_w137_c20 + 4.2482 x_w137_c21 + 4.0312 x_w137_c22 + 7.6640 x_w137_c23 + 3.5295 x_w137_c24 + 1.1764 x_w138_c0 + 7.7144 x_w138_c1 + 3.6502 x_w138_c2 + 6.0963 x_w138_c3 + 4.4392 x_w138_c4 + 6.4801 x_w138_c5 + 3.2827 x_w138_c6 + 4.6138 x_w138_c7 + 7.8986 x_w138_c8 + 4.4264 x_w138_c9 + 6.5357 x_w138_c10 + 5.2391 x_w138_c11 + 7.1664 x_w138_c12 + 6.9743 x_w138_c13 + 3.5245 x_w138_c14 + 5.1528 x_w138_c15 + 5.8624 x_w138_c16 + 7.8175 x_w138_c17 + 5.3853 x_w138_c18 + 6.2438 x_w138_c19 + 4.4447 x_w138_c20 + 6.5663 x_w138_c21 + 6.5243 x_w138_c22 + 6.9089 x_w138_c23 + 7.2036 x_w138_c24 + 0.6653 x_w139_c0 + 5.5341 x_w139_c1 + 7.0699 x_w139_c2 + 6.4929 x_w139_c3 + 3.5923 x_w139_c4 + 7.4873 x_w139_c5 + 7.3134 x_w139_c6 + 5.2345 x_w139_c7 + 6.2023 x_w139_c8 + 7.4124 x_w139_c9 + 3.5497 x_w139_c10 + 7.6191 x_w139_c11 + 6.1875 x_w139_c12 + 6.8786 x_w139_c13 + 3.0721 x_w139_c14 + 6.6888 x_w139_c15 + 5.0815 x_w139_c16 + 4.6432 x_w139_c17 + 5.0806 x_w139_c18 + 6.4754 x_w139_c19 + 3.8120 x_w139_c20 + 7.9880 x_w139_c21 + 5.4619 x_w139_c22 + 4.8117 x_w139_c23 + 4.6946 x_w139_c24 + 1.7600 x_w140_c0 + 5.3363 x_w140_c1 + 4.5789 x_w140_c2 + 5.6410 x_w140_c3 + 3.3664 x_w140_c4 + 5.9131 x_w140_c5 + 5.6491 x_w140_c6 + 5.0698 x_w140_c7 + 3.4042 x_w140_c8 + 6.6488 x_w140_c9 + 5.5717 x_w140_c10 + 3.3306 x_w140_c11 + 4.5731 x_w140_c12 + 6.4326 x_w140_c13 + 4.5662 x_w140_c14 + 3.8675 x_w140_c15 + 7.4924 x_w140_c16 + 3.8115 x_w140_c17 + 7.6844 x_w140_c18 + 6.0299 x_w140_c19 + 5.8725 x_w140_c20 + 7.9588 x_w140_c21 + 7.5320 x_w140_c22 + 7.1280 x_w140_c23 + 3.3135 x_w140_c24 + 1.1018 x_w141_c0 + 4.2678 x_w141_c1 + 4.4675 x_w141_c2 + 4.6786 x_w141_c3 + 3.4984 x_w141_c4 + 3.9047 x_w141_c5 + 6.4300 x_w141_c6 + 6.2016 x_w141_c7 + 4.2092 x_w141_c8 + 5.9743 x_w141_c9 + 6.7887 x_w141_c10 + 7.6705 x_w141_c11 + 6.2661 x_w141_c12 + 5.7922 x_w141_c13 + 5.4988 x_w141_c14 + 7.8313 x_w141_c15 + 5.3416 x_w141_c16 + 5.8605 x_w141_c17 + 5.3111 x_w141_c18 + 5.3567 x_w141_c19 + 4.4708 x_w141_c20 + 5.8458 x_w141_c21 + 6.4740 x_w141_c22 + 5.8284 x_w141_c23 + 3.7302 x_w141_c24 + 1.9349 x_w142_c0 + 7.8684 x_w142_c1 + 3.2106 x_w142_c2 + 4.0077 x_w142_c3 + 6.6654 x_w142_c4 + 4.1217 x_w142_c5 + 3.3769 x_w142_c6 + 4.1364 x_w142_c7 + 4.2050 x_w142_c8 + 6.4514 x_w142_c9 + 3.1696 x_w142_c10 + 4.6887 x_w142_c11 + 4.4241 x_w142_c12 + 6.5690 x_w142_c13 + 5.2831 x_w142_c14 + 5.9836 x_w142_c15 + 7.7590 x_w142_c16 + 7.9616 x_w142_c17 + 5.4513 x_w142_c18 + 3.8412 x_w142_c19 + 4.3373 x_w142_c20 + 3.1276 x_w142_c21 + 6.7952 x_w142_c22 + 5.4397 x_w142_c23 + 5.9371 x_w142_c24 + 1.1004 x_w143_c0 + 6.6453 x_w143_c1 + 4.5650 x_w143_c2 + 6.8935 x_w143_c3 + 4.9709 x_w143_c4 + 6.6386 x_w143_c5 + 4.8315 x_w143_c6 + 5.6502 x_w143_c7 + 5.4712 x_w143_c8 + 5.1887 x_w143_c9 + 6.5152 x_w143_c10 + 4.0772 x_w143_c11 + 5.1313 x_w143_c12 + 5.2576 x_w143_c13 + 7.8587 x_w143_c14 + 7.8949 x_w143_c15 + 6.8263 x_w143_c16 + 5.4426 x_w143_c17 + 5.2923 x_w143_c18 + 3.8024 x_w143_c19 + 4.1861 x_w143_c20 + 5.8067 x_w143_c21 + 7.2842 x_w143_c22 + 7.9926 x_w143_c23 + 6.3897 x_w143_c24 + 0.6337 x_w144_c0 + 4.2260 x_w144_c1 + 4.2704 x_w144_c2 + 5.9972 x_w144_c3 + 3.1661 x_w144_c4 + 5.7158 x_w144_c5 + 4.2542 x_w144_c6 + 3.7003 x_w144_c7 + 5.3867 x_w144_c8 + 3.9804 x_w144_c9 + 4.4289 x_w144_c10 + 4.1591 x_w144_c11 + 5.2769 x_w144_c12 + 7.3796 x_w144_c13 + 7.1147 x_w144_c14 + 5.8874 x_w144_c15 + 3.6292 x_w144_c16 + 7.7367 x_w144_c17 + 3.0651 x_w144_c18 + 5.4798 x_w144_c19 + 7.3555 x_w144_c20 + 5.7517 x_w144_c21 + 4.1800 x_w144_c22 + 4.2602 x_w144_c23 + 6.1180 x_w144_c24 + 1.2019 x_w145_c0 + 7.9251 x_w145_c1 + 5.5036 x_w145_c2 + 4.2882 x_w145_c3 + 4.9116 x_w145_c4 + 3.9206 x_w145_c5 + 6.5458 x_w145_c6 + 3.8840 x_w145_c7 + 3.4205 x_w145_c8 + 5.0549 x_w145_c9 + 6.7239 x_w145_c10 + 3.6947 x_w145_c11 + 4.9325 x_w145_c12 + 6.6259 x_w145_c13 + 4.7628 x_w145_c14 + 3.1873 x_w145_c15 + 4.9484 x_w145_c16 + 7.0916 x_w145_c17 + 3.4663 x_w145_c18 + 7.6861 x_w145_c19 + 5.9435 x_w145_c20 + 4.5430 x_w145_c21 + 6.4228 x_w145_c22 + 7.8118 x_w145_c23 + 5.6009 x_w145_c24 + 0.6884 x_w146_c0 + 3.6306 x_w146_c1 + 7.4709 x_w146_c2 + 4.9251 x_w146_c3 + 3.9614 x_w146_c4 + 5.4166 x_w146_c5 + 4.3496 x_w146_c6 + 3.8837 x_w146_c7 + 3.6888 x_w146_c8 + 4.3551 x_w146_c9 + 5.4462 x_w146_c10 + 4.8682 x_w146_c11 + 5.2950 x_w146_c12 + 7.2309 x_w146_c13 + 6.6615 x_w146_c14 + 7.0196 x_w146_c15 + 3.4645 x_w146_c16 + 6.9277 x_w146_c17 + 7.1424 x_w146_c18 + 7.1707 x_w146_c19 + 6.6865 x_w146_c20 + 6.0256 x_w146_c21 + 5.3607 x_w146_c22 + 6.3117 x_w146_c23 + 3.3253 x_w146_c24 + 1.6230 x_w147_c0 + 7.1135 x_w147_c1 + 5.7283 x_w147_c2 + 7.3351 x_w147_c3 + 4.1099 x_w147_c4 + 3.9839 x_w147_c5 + 3.8898 x_w147_c6 + 3.7843 x_w147_c7 + 3.1780 x_w147_c8 + 5.4643 x_w147_c9 + 6.2691 x_w147_c10 + 3.9993 x_w147_c11 + 7.9062 x_w147_c12 + 6.0312 x_w147_c13 + 5.6184 x_w147_c14 + 6.3936 x_w147_c15 + 6.4391 x_w147_c16 + 4.9614 x_w147_c17 + 7.4354 x_w147_c18 + 6.8584 x_w147_c19 + 5.0617 x_w147_c20 + 6.4750 x_w147_c21 + 5.7045 x_w147_c22 + 7.5070 x_w147_c23 + 3.7740 x_w147_c24 + 1.3838 x_w148_c0 + 7.0131 x_w148_c1 + 5.9384 x_w148_c2 + 5.3987 x_w148_c3 + 4.3205 x_w148_c4 + 7.6728 x_w148_c5 + 6.4491 x_w148_c6 + 4.7276 x_w148_c7 + 5.0971 x_w148_c8 + 3.8004 x_w148_c9 + 3.0669 x_w148_c10 + 7.3391 x_w148_c11 + 6.9678 x_w148_c12 + 5.0207 x_w148_c13 + 4.9764 x_w148_c14 + 6.0189 x_w148_c15 + 3.9817 x_w148_c16 + 3.3890 x_w148_c17 + 6.0825 x_w148_c18 + 6.6163 x_w148_c19 + 3.2120 x_w148_c20 + 4.7756 x_w148_c21 + 4.1181 x_w148_c22 + 6.2646 x_w148_c23 + 3.1350 x_w148_c24 + 1.5725 x_w149_c0 + 6.4189 x_w149_c1 + 7.7988 x_w149_c2 + 6.3455 x_w149_c3 + 6.7674 x_w149_c4 + 4.2909 x_w149_c5 + 3.8876 x_w149_c6 + 4.7044 x_w149_c7 + 5.2447 x_w149_c8 + 3.5805 x_w149_c9 + 3.7290 x_w149_c10 + 7.7521 x_w149_c11 + 3.3662 x_w149_c12 + 5.1451 x_w149_c13 + 6.4151 x_w149_c14 + 5.4694 x_w149_c15 + 4.0343 x_w149_c16 + 4.5369 x_w149_c17 + 7.2668 x_w149_c18 + 5.2379 x_w149_c19 + 3.9644 x_w149_c20 + 6.2494 x_w149_c21 + 3.6242 x_w149_c22 + 7.9802 x_w149_c23 + 6.1254 x_w149_c24 + 1.3036 x_w150_c0 + 5.5326 x_w150_c1 + 7.6285 x_w150_c2 + 4.0523 x_w150_c3 + 3.1794 x_w150_c4 + 4.7168 x_w150_c5 + 5.0586 x_w150_c6 + 7.8675 x_w150_c7 + 5.9014 x_w150_c8 + 5.0233 x_w150_c9 + 3.8333 x_w150_c10 + 4.5862 x_w150_c11 + 7.3627 x_w150_c12 + 3.7310 x_w150_c13 + 7.2456 x_w150_c14 + 3.2228 x_w150_c15 + 7.1410 x_w150_c16 + 6.0703 x_w150_c17 + 7.1071 x_w150_c18 + 4.9687 x_w150_c19 + 7.1603 x_w150_c20 + 7.4264 x_w150_c21 + 4.3688 x_w150_c22 + 4.0438 x_w150_c23 + 5.3870 x_w150_c24 + 1.2914 x_w151_c0 + 4.6280 x_w151_c1 + 4.7980 x_w151_c2 + 5.7054 x_w151_c3 + 3.2605 x_w151_c4 + 7.5450 x_w151_c5 + 7.8894 x_w151_c6 + 4.9031 x_w151_c7 + 7.7099 x_w151_c8 + 7.3407 x_w151_c9 + 4.3682 x_w151_c10 + 7.0040 x_w151_c11 + 7.8326 x_w151_c12 + 7.1939 x_w151_c13 + 4.1781 x_w151_c14 + 5.1156 x_w151_c15 + 3.9962 x_w151_c16 + 3.6449 x_w151_c17 + 5.9577 x_w151_c18 + 4.9070 x_w151_c19 + 7.2927 x_w151_c20 + 7.5308 x_w151_c21 + 3.3001 x_w151_c22 + 6.7353 x_w151_c23 + 3.3394 x_w151_c24 + 0.5019 x_w152_c0 + 3.9848 x_w152_c1 + 3.5670 x_w152_c2 + 6.2333 x_w152_c3 + 7.7382 x_w152_c4 + 5.5613 x_w152_c5 + 7.4002 x_w152_c6 + 5.7158 x_w152_c7 + 4.0253 x_w152_c8 + 3.2081 x_w152_c9 + 3.5527 x_w152_c10 + 6.9087 x_w152_c11 + 3.3581 x_w152_c12 + 6.6847 x_w152_c13 + 3.7937 x_w152_c14 + 5.8155 x_w152_c15 + 7.4549 x_w152_c16 + 4.8968 x_w152_c17 + 7.5635 x_w152_c18 + 5.3484 x_w152_c19 + 5.1448 x_w152_c20 + 3.8838 x_w152_c21 + 5.1500 x_w152_c22 + 4.9820 x_w152_c23 + 3.5179 x_w152_c24 + 1.9132 x_w153_c0 + 3.4037 x_w153_c1 + 3.0042 x_w153_c2 + 6.8137 x_w153_c3 + 7.8133 x_w153_c4 + 5.0469 x_w153_c5 + 6.3217 x_w153_c6 + 4.8224 x_w153_c7 + 6.1695 x_w153_c8 + 3.2082 x_w153_c9 + 7.2520 x_w153_c10 + 7.4239 x_w153_c11 + 5.3688 x_w153_c12 + 3.6444 x_w153_c13 + 6.3924 x_w153_c14 + 7.1496 x_w153_c15 + 6.4388 x_w153_c16 + 4.8982 x_w153_c17 + 6.8130 x_w153_c18 + 5.1492 x_w153_c19 + 4.7370 x_w153_c20 + 5.3961 x_w153_c21 + 4.9209 x_w153_c22 + 3.5906 x_w153_c23 + 6.3253 x_w153_c24 + 1.4302 x_w154_c0 + 5.1248 x_w154_c1 + 3.8908 x_w154_c2 + 5.7961 x_w154_c3 + 5.4963 x_w154_c4 + 6.8638 x_w154_c5 + 3.4091 x_w154_c6 + 7.1372 x_w154_c7 + 7.1187 x_w154_c8 + 7.9886 x_w154_c9 + 3.3227 x_w154_c10 + 4.0963 x_w154_c11 + 7.7638 x_w154_c12 + 4.2900 x_w154_c13 + 6.0532 x_w154_c14 + 3.1398 x_w154_c15 + 5.1031 x_w154_c16 + 5.3460 x_w154_c17 + 6.1056 x_w154_c18 + 4.6503 x_w154_c19 + 5.1256 x_w154_c20 + 7.1791 x_w154_c21 + 7.0322 x_w154_c22 + 7.9073 x_w154_c23 + 5.4140 x_w154_c24 + 0.7560 x_w155_c0 + 4.8385 x_w155_c1 + 5.9806 x_w155_c2 + 6.6368 x_w155_c3 + 5.4703 x_w155_c4 + 7.5953 x_w155_c5 + 3.6362 x_w155_c6 + 3.1480 x_w155_c7 + 6.4817 x_w155_c8 + 3.1816 x_w155_c9 + 5.9101 x_w155_c10 + 6.5681 x_w155_c11 + 7.2232 x_w155_c12 + 7.5146 x_w155_c13 + 3.6011 x_w155_c14 + 7.9422 x_w155_c15 + 5.2677 x_w155_c16 + 7.6129 x_w155_c17 + 4.7566 x_w155_c18 + 3.2656 x_w155_c19 + 7.8020 x_w155_c20 + 5.6033 x_w155_c21 + 7.3004 x_w155_c22 + 4.2301 x_w155_c23 + 5.2636 x_w155_c24 + 1.3626 x_w156_c0 + 6.4800 x_w156_c1 + 7.6496 x_w156_c2 + 5.2016 x_w156_c3 + 3.2974 x_w156_c4 + 5.7109 x_w156_c5 + 7.3061 x_w156_c6 + 4.2653 x_w156_c7 + 4.5512 x_w156_c8 + 3.2813 x_w156_c9 + 3.7065 x_w156_c10 + 6.5127 x_w156_c11 + 7.1826 x_w156_c12 + 3.3071 x_w156_c13 + 3.6350 x_w156_c14 + 3.1656 x_w156_c15 + 3.9343 x_w156_c16 + 4.1459 x_w156_c17 + 6.7029 x_w156_c18 + 5.6546 x_w156_c19 + 6.6917 x_w156_c20 + 5.7785 x_w156_c21 + 7.7999 x_w156_c22 + 7.1021 x_w156_c23 + 4.3098 x_w156_c24 + 1.2162 x_w157_c0 + 6.9148 x_w157_c1 + 4.8737 x_w157_c2 + 4.4429 x_w157_c3 + 6.6926 x_w157_c4 + 5.4620 x_w157_c5 + 7.6443 x_w157_c6 + 6.9300 x_w157_c7 + 6.6577 x_w157_c8 + 4.8760 x_w157_c9 + 3.2462 x_w157_c10 + 7.6394 x_w157_c11 + 5.0261 x_w157_c12 + 5.6593 x_w157_c13 + 6.2777 x_w157_c14 + 7.3084 x_w157_c15 + 3.5908 x_w157_c16 + 7.3323 x_w157_c17 + 7.9271 x_w157_c18 + 6.6803 x_w157_c19 + 3.6664 x_w157_c20 + 4.6049 x_w157_c21 + 5.0131 x_w157_c22 + 5.0863 x_w157_c23 + 7.1066 x_w157_c24 + 0.7554 x_w158_c0 + 4.6675 x_w158_c1 + 3.3000 x_w158_c2 + 6.8240 x_w158_c3 + 6.8592 x_w158_c4 + 4.3274 x_w158_c5 + 6.8249 x_w158_c6 + 3.2736 x_w158_c7 + 6.6584 x_w158_c8 + 3.7654 x_w158_c9 + 3.7996 x_w158_c10 + 6.2184 x_w158_c11 + 5.6952 x_w158_c12 + 3.0718 x_w158_c13 + 5.7650 x_w158_c14 + 6.1096 x_w158_c15 + 6.6084 x_w158_c16 + 7.0579 x_w158_c17 + 6.7321 x_w158_c18 + 4.9783 x_w158_c19 + 4.7626 x_w158_c20 + 3.0800 x_w158_c21 + 5.1393 x_w158_c22 + 5.6591 x_w158_c23 + 3.8362 x_w158_c24 + 1.5485 x_w159_c0 + 4.3387 x_w159_c1 + 4.7813 x_w159_c2 + 7.5557 x_w159_c3 + 3.9677 x_w159_c4 + 4.7096 x_w159_c5 + 4.7689 x_w159_c6 + 6.6216 x_w159_c7 + 3.3049 x_w159_c8 + 3.3304 x_w159_c9 + 4.6453 x_w159_c10 + 3.9298 x_w159_c11 + 6.6825 x_w159_c12 + 7.6620 x_w159_c13 + 3.8920 x_w159_c14 + 7.5833 x_w159_c15 + 3.1727 x_w159_c16 + 4.8804 x_w159_c17 + 5.7106 x_w159_c18 + 3.4152 x_w159_c19 + 5.7764 x_w159_c20 + 4.2348 x_w159_c21 + 7.2975 x_w159_c22 + 5.9643 x_w159_c23 + 4.8683 x_w159_c24 + 0.9841 x_w160_c0 + 3.1147 x_w160_c1 + 6.9733 x_w160_c2 + 4.9478 x_w160_c3 + 7.5737 x_w160_c4 + 3.0403 x_w160_c5 + 3.3805 x_w160_c6 + 6.6941 x_w160_c7 + 3.0995 x_w160_c8 + 6.7167 x_w160_c9 + 3.4430 x_w160_c10 + 7.7996 x_w160_c11 + 3.6034 x_w160_c12 + 6.8888 x_w160_c13 + 3.0650 x_w160_c14 + 4.1764 x_w160_c15 + 3.9220 x_w160_c16 + 5.3014 x_w160_c17 + 4.6514 x_w160_c18 + 3.1763 x_w160_c19 + 7.2469 x_w160_c20 + 4.9249 x_w160_c21 + 3.8021 x_w160_c22 + 5.3320 x_w160_c23 + 5.9599 x_w160_c24 + 0.7533 x_w161_c0 + 3.0998 x_w161_c1 + 4.4475 x_w161_c2 + 3.2641 x_w161_c3 + 7.9951 x_w161_c4 + 7.4209 x_w161_c5 + 4.6945 x_w161_c6 + 5.6305 x_w161_c7 + 6.7934 x_w161_c8 + 7.2494 x_w161_c9 + 5.7919 x_w161_c10 + 4.0699 x_w161_c11 + 5.0895 x_w161_c12 + 6.8071 x_w161_c13 + 7.0544 x_w161_c14 + 3.7052 x_w161_c15 + 5.8664 x_w161_c16 + 4.6409 x_w161_c17 + 3.2949 x_w161_c18 + 4.7794 x_w161_c19 + 4.1152 x_w161_c20 + 4.6095 x_w161_c21 + 6.5576 x_w161_c22 + 6.0543 x_w161_c23 + 5.8166 x_w161_c24 + 1.4468 x_w162_c0 + 5.6512 x_w162_c1 + 7.3173 x_w162_c2 + 7.6961 x_w162_c3 + 3.2010 x_w162_c4 + 5.5986 x_w162_c5 + 4.3524 x_w162_c6 + 6.6992 x_w162_c7 + 5.0943 x_w162_c8 + 4.7915 x_w162_c9 + 5.6123 x_w162_c10 + 3.5647 x_w162_c11 + 6.0805 x_w162_c12 + 3.0968 x_w162_c13 + 3.2758 x_w162_c14 + 7.2257 x_w162_c15 + 7.7839 x_w162_c16 + 4.6012 x_w162_c17 + 7.3009 x_w162_c18 + 3.0406 x_w162_c19 + 5.1833 x_w162_c20 + 6.1732 x_w162_c21 + 7.5402 x_w162_c22 + 5.2875 x_w162_c23 + 4.7455 x_w162_c24 + 1.1685 x_w163_c0 + 6.7371 x_w163_c1 + 5.9872 x_w163_c2 + 6.4355 x_w163_c3 + 5.5472 x_w163_c4 + 5.1987 x_w163_c5 + 4.4627 x_w163_c6 + 7.6827 x_w163_c7 + 6.8972 x_w163_c8 + 3.0730 x_w163_c9 + 3.6498 x_w163_c10 + 5.7771 x_w163_c11 + 7.9652 x_w163_c12 + 5.1991 x_w163_c13 + 5.7791 x_w163_c14 + 4.6567 x_w163_c15 + 3.1695 x_w163_c16 + 3.5106 x_w163_c17 + 6.9949 x_w163_c18 + 3.0509 x_w163_c19 + 3.2717 x_w163_c20 + 4.3155 x_w163_c21 + 4.4375 x_w163_c22 + 5.0793 x_w163_c23 + 6.1066 x_w163_c24 + 1.4394 x_w164_c0 + 6.3098 x_w164_c1 + 3.8606 x_w164_c2 + 6.5352 x_w164_c3 + 5.6390 x_w164_c4 + 6.6243 x_w164_c5 + 4.1463 x_w164_c6 + 5.4190 x_w164_c7 + 7.3187 x_w164_c8 + 6.6199 x_w164_c9 + 5.9162 x_w164_c10 + 6.9077 x_w164_c11 + 6.5432 x_w164_c12 + 5.8373 x_w164_c13 + 4.0667 x_w164_c14 + 7.9889 x_w164_c15 + 4.4531 x_w164_c16 + 7.2745 x_w164_c17 + 7.1768 x_w164_c18 + 3.7068 x_w164_c19 + 3.8130 x_w164_c20 + 3.5895 x_w164_c21 + 4.2251 x_w164_c22 + 6.3447 x_w164_c23 + 7.9558 x_w164_c24 + 1.4824 x_w165_c0 + 5.6107 x_w165_c1 + 5.7852 x_w165_c2 + 7.5087 x_w165_c3 + 5.5886 x_w165_c4 + 5.3774 x_w165_c5 + 4.2756 x_w165_c6 + 5.3306 x_w165_c7 + 3.8383 x_w165_c8 + 7.6224 x_w165_c9 + 5.3480 x_w165_c10 + 5.5274 x_w165_c11 + 3.5737 x_w165_c12 + 7.0776 x_w165_c13 + 6.1244 x_w165_c14 + 7.0382 x_w165_c15 + 6.6789 x_w165_c16 + 6.8329 x_w165_c17 + 6.3628 x_w165_c18 + 5.7657 x_w165_c19 + 3.8443 x_w165_c20 + 5.0874 x_w165_c21 + 5.7636 x_w165_c22 + 5.9320 x_w165_c23 + 6.9619 x_w165_c24 + 0.7215 x_w166_c0 + 3.5018 x_w166_c1 + 3.8778 x_w166_c2 + 4.2871 x_w166_c3 + 6.2961 x_w166_c4 + 6.7956 x_w166_c5 + 6.0535 x_w166_c6 + 4.2962 x_w166_c7 + 5.0305 x_w166_c8 + 6.0787 x_w166_c9 + 6.4067 x_w166_c10 + 5.1341 x_w166_c11 + 3.9606 x_w166_c12 + 3.8862 x_w166_c13 + 7.4949 x_w166_c14 + 4.0271 x_w166_c15 + 4.1300 x_w166_c16 + 4.7376 x_w166_c17 + 5.8452 x_w166_c18 + 6.4527 x_w166_c19 + 7.5500 x_w166_c20 + 6.4627 x_w166_c21 + 6.5082 x_w166_c22 + 5.5762 x_w166_c23 + 7.3032 x_w166_c24 + 1.3326 x_w167_c0 + 3.6913 x_w167_c1 + 3.3457 x_w167_c2 + 7.2861 x_w167_c3 + 5.3755 x_w167_c4 + 4.4490 x_w167_c5 + 7.7113 x_w167_c6 + 6.0798 x_w167_c7 + 3.6000 x_w167_c8 + 6.1539 x_w167_c9 + 7.9695 x_w167_c10 + 4.1744 x_w167_c11 + 4.5156 x_w167_c12 + 5.1172 x_w167_c13 + 3.9887 x_w167_c14 + 7.3033 x_w167_c15 + 5.4054 x_w167_c16 + 5.5456 x_w167_c17 + 7.1579 x_w167_c18 + 5.9022 x_w167_c19 + 5.0322 x_w167_c20 + 7.1229 x_w167_c21 + 7.9302 x_w167_c22 + 7.5614 x_w167_c23 + 5.9915 x_w167_c24 + 0.7820 x_w168_c0 + 5.8452 x_w168_c1 + 6.4090 x_w168_c2 + 7.5565 x_w168_c3 + 5.8653 x_w168_c4 + 5.2674 x_w168_c5 + 4.8813 x_w168_c6 + 5.7031 x_w168_c7 + 7.0811 x_w168_c8 + 4.9547 x_w168_c9 + 6.7610 x_w168_c10 + 5.7118 x_w168_c11 + 6.8386 x_w168_c12 + 5.9033 x_w168_c13 + 3.0184 x_w168_c14 + 5.5478 x_w168_c15 + 7.3164 x_w168_c16 + 5.9376 x_w168_c17 + 6.8253 x_w168_c18 + 6.7552 x_w168_c19 + 7.1605 x_w168_c20 + 6.7076 x_w168_c21 + 4.1141 x_w168_c22 + 6.4457 x_w168_c23 + 5.0601 x_w168_c24 + 0.5236 x_w169_c0 + 6.0749 x_w169_c1 + 3.9025 x_w169_c2 + 3.8198 x_w169_c3 + 5.2113 x_w169_c4 + 3.8543 x_w169_c5 + 4.8103 x_w169_c6 + 4.1506 x_w169_c7 + 5.0554 x_w169_c8 + 7.0857 x_w169_c9 + 5.6371 x_w169_c10 + 7.4345 x_w169_c11 + 4.2879 x_w169_c12 + 4.9022 x_w169_c13 + 5.6760 x_w169_c14 + 5.9621 x_w169_c15 + 7.5202 x_w169_c16 + 7.2094 x_w169_c17 + 6.7936 x_w169_c18 + 5.0085 x_w169_c19 + 5.2385 x_w169_c20 + 7.3542 x_w169_c21 + 3.9704 x_w169_c22 + 5.0892 x_w169_c23 + 6.4037 x_w169_c24 + 1.2915 x_w170_c0 + 3.0626 x_w170_c1 + 3.9640 x_w170_c2 + 6.5100 x_w170_c3 + 5.1584 x_w170_c4 + 3.4173 x_w170_c5 + 4.3379 x_w170_c6 + 3.2841 x_w170_c7 + 7.8415 x_w170_c8 + 5.9483 x_w170_c9 + 7.5958 x_w170_c10 + 6.6925 x_w170_c11 + 6.7387 x_w170_c12 + 4.9038 x_w170_c13 + 7.8389 x_w170_c14 + 6.4827 x_w170_c15 + 3.5030 x_w170_c16 + 3.5776 x_w170_c17 + 3.6894 x_w170_c18 + 5.1708 x_w170_c19 + 6.8355 x_w170_c20 + 4.9436 x_w170_c21 + 5.3862 x_w170_c22 + 6.9873 x_w170_c23 + 3.5164 x_w170_c24 + 1.2533 x_w171_c0 + 6.4294 x_w171_c1 + 4.6666 x_w171_c2 + 4.8564 x_w171_c3 + 7.3677 x_w171_c4 + 3.1435 x_w171_c5 + 6.6565 x_w171_c6 + 3.4858 x_w171_c7 + 5.3361 x_w171_c8 + 7.0271 x_w171_c9 + 5.4573 x_w171_c10 + 3.2836 x_w171_c11 + 4.0501 x_w171_c12 + 3.8505 x_w171_c13 + 5.1841 x_w171_c14 + 4.1282 x_w171_c15 + 4.7824 x_w171_c16 + 5.5126 x_w171_c17 + 3.7395 x_w171_c18 + 4.0365 x_w171_c19 + 4.7654 x_w171_c20 + 7.7003 x_w171_c21 + 5.3735 x_w171_c22 + 6.6803 x_w171_c23 + 5.4330 x_w171_c24 + 1.1843 x_w172_c0 + 6.4242 x_w172_c1 + 5.3097 x_w172_c2 + 5.1343 x_w172_c3 + 5.6171 x_w172_c4 + 5.2029 x_w172_c5 + 6.6243 x_w172_c6 + 5.7939 x_w172_c7 + 7.4641 x_w172_c8 + 6.5285 x_w172_c9 + 3.4520 x_w172_c10 + 3.4494 x_w172_c11 + 6.4236 x_w172_c12 + 6.1673 x_w172_c13 + 7.3603 x_w172_c14 + 3.6214 x_w172_c15 + 5.6179 x_w172_c16 + 5.1402 x_w172_c17 + 7.7780 x_w172_c18 + 5.5244 x_w172_c19 + 7.6751 x_w172_c20 + 3.8993 x_w172_c21 + 6.2749 x_w172_c22 + 6.3270 x_w172_c23 + 7.1867 x_w172_c24 + 1.0985 x_w173_c0 + 5.1967 x_w173_c1 + 5.0126 x_w173_c2 + 6.6645 x_w173_c3 + 6.3999 x_w173_c4 + 4.1077 x_w173_c5 + 7.2595 x_w173_c6 + 5.1365 x_w173_c7 + 4.4642 x_w173_c8 + 7.5937 x_w173_c9 + 4.1674 x_w173_c10 + 6.6826 x_w173_c11 + 4.3599 x_w173_c12 + 4.5959 x_w173_c13 + 6.1238 x_w173_c14 + 6.0107 x_w173_c15 + 7.8436 x_w173_c16 + 5.2524 x_w173_c17 + 4.3685 x_w173_c18 + 4.9460 x_w173_c19 + 7.8645 x_w173_c20 + 5.5163 x_w173_c21 + 5.8801 x_w173_c22 + 3.6769 x_w173_c23 + 4.7918 x_w173_c24 + 0.5793 x_w174_c0 + 4.9701 x_w174_c1 + 5.0149 x_w174_c2 + 4.6503 x_w174_c3 + 3.1997 x_w174_c4 + 7.7317 x_w174_c5 + 3.6958 x_w174_c6 + 6.6514 x_w174_c7 + 5.1034 x_w174_c8 + 5.3495 x_w174_c9 + 3.2288 x_w174_c10 + 6.6777 x_w174_c11 + 3.1013 x_w174_c12 + 3.1865 x_w174_c13 + 3.9111 x_w174_c14 + 6.2225 x_w174_c15 + 5.5953 x_w174_c16 + 6.0736 x_w174_c17 + 6.2396 x_w174_c18 + 5.0698 x_w174_c19 + 3.2853 x_w174_c20 + 5.0008 x_w174_c21 + 5.7365 x_w174_c22 + 4.5097 x_w174_c23 + 5.2344 x_w174_c24 + 0.5114 x_w175_c0 + 5.3001 x_w175_c1 + 5.4823 x_w175_c2 + 4.4092 x_w175_c3 + 5.1852 x_w175_c4 + 3.2908 x_w175_c5 + 4.5275 x_w175_c6 + 4.0741 x_w175_c7 + 7.5286 x_w175_c8 + 3.7937 x_w175_c9 + 6.4971 x_w175_c10 + 3.6883 x_w175_c11 + 3.1218 x_w175_c12 + 6.4180 x_w175_c13 + 3.4239 x_w175_c14 + 3.8336 x_w175_c15 + 3.2221 x_w175_c16 + 7.1363 x_w175_c17 + 6.8770 x_w175_c18 + 6.6433 x_w175_c19 + 6.0928 x_w175_c20 + 4.9004 x_w175_c21 + 3.7470 x_w175_c22 + 5.9717 x_w175_c23 + 5.7322 x_w175_c24 + 1.5767 x_w176_c0 + 5.4909 x_w176_c1 + 3.1575 x_w176_c2 + 3.4630 x_w176_c3 + 6.3629 x_w176_c4 + 7.1545 x_w176_c5 + 5.3593 x_w176_c6 + 5.4586 x_w176_c7 + 6.7551 x_w176_c8 + 3.6673 x_w176_c9 + 5.1579 x_w176_c10 + 4.0795 x_w176_c11 + 7.8294 x_w176_c12 + 6.7764 x_w176_c13 + 7.1967 x_w176_c14 + 5.1597 x_w176_c15 + 5.9782 x_w176_c16 + 4.5526 x_w176_c17 + 7.1654 x_w176_c18 + 6.9957 x_w176_c19 + 4.8330 x_w176_c20 + 5.2993 x_w176_c21 + 4.4001 x_w176_c22 + 3.4892 x_w176_c23 + 3.3911 x_w176_c24 + 1.3182 x_w177_c0 + 3.0442 x_w177_c1 + 6.6856 x_w177_c2 + 4.6275 x_w177_c3 + 4.8687 x_w177_c4 + 6.7782 x_w177_c5 + 5.6669 x_w177_c6 + 5.1190 x_w177_c7 + 7.4741 x_w177_c8 + 6.2027 x_w177_c9 + 5.1910 x_w177_c10 + 6.2245 x_w177_c11 + 4.0491 x_w177_c12 + 4.9122 x_w177_c13 + 3.4392 x_w177_c14 + 6.9137 x_w177_c15 + 3.2476 x_w177_c16 + 4.1220 x_w177_c17 + 4.8319 x_w177_c18 + 4.3210 x_w177_c19 + 5.8600 x_w177_c20 + 7.3230 x_w177_c21 + 4.3225 x_w177_c22 + 5.8541 x_w177_c23 + 4.6328 x_w177_c24 + 1.5765 x_w178_c0 + 3.4614 x_w178_c1 + 3.4535 x_w178_c2 + 7.8410 x_w178_c3 + 7.3466 x_w178_c4 + 5.8847 x_w178_c5 + 5.3461 x_w178_c6 + 7.1564 x_w178_c7 + 3.1380 x_w178_c8 + 7.1424 x_w178_c9 + 4.9839 x_w178_c10 + 6.7461 x_w178_c11 + 6.8158 x_w178_c12 + 5.3352 x_w178_c13 + 5.1778 x_w178_c14 + 5.1170 x_w178_c15 + 5.4994 x_w178_c16 + 6.9316 x_w178_c17 + 6.2378 x_w178_c18 + 4.5868 x_w178_c19 + 3.7330 x_w178_c20 + 3.2330 x_w178_c21 + 5.8122 x_w178_c22 + 7.3030 x_w178_c23 + 4.5064 x_w178_c24 + 1.2805 x_w179_c0 + 4.3574 x_w179_c1 + 7.9058 x_w179_c2 + 3.8619 x_w179_c3 + 5.3960 x_w179_c4 + 5.7584 x_w179_c5 + 6.2249 x_w179_c6 + 5.6704 x_w179_c7 + 6.3181 x_w179_c8 + 4.5273 x_w179_c9 + 4.9107 x_w179_c10 + 3.1015 x_w179_c11 + 4.6477 x_w179_c12 + 3.6763 x_w179_c13 + 7.5889 x_w179_c14 + 7.1489 x_w179_c15 + 3.3792 x_w179_c16 + 6.9716 x_w179_c17 + 5.0558 x_w179_c18 + 7.7180 x_w179_c19 + 4.5726 x_w179_c20 + 3.1431 x_w179_c21 + 7.4295 x_w179_c22 + 6.3707 x_w179_c23 + 6.2891 x_w179_c24 + 1.3963 x_w180_c0 + 3.0613 x_w180_c1 + 7.4148 x_w180_c2 + 5.1081 x_w180_c3 + 3.1286 x_w180_c4 + 6.4977 x_w180_c5 + 7.1907 x_w180_c6 + 7.9020 x_w180_c7 + 3.1229 x_w180_c8 + 6.8090 x_w180_c9 + 7.8297 x_w180_c10 + 7.3017 x_w180_c11 + 4.4738 x_w180_c12 + 4.2504 x_w180_c13 + 7.7795 x_w180_c14 + 5.4562 x_w180_c15 + 5.2767 x_w180_c16 + 6.3532 x_w180_c17 + 3.7106 x_w180_c18 + 7.0513 x_w180_c19 + 6.5846 x_w180_c20 + 7.2963 x_w180_c21 + 7.6071 x_w180_c22 + 4.5728 x_w180_c23 + 3.5660 x_w180_c24 + 0.8569 x_w181_c0 + 3.3069 x_w181_c1 + 6.2821 x_w181_c2 + 3.1511 x_w181_c3 + 6.8202 x_w181_c4 + 7.3836 x_w181_c5 + 6.8872 x_w181_c6 + 3.7358 x_w181_c7 + 7.4502 x_w181_c8 + 4.3000 x_w181_c9 + 5.2258 x_w181_c10 + 4.2488 x_w181_c11 + 4.5266 x_w181_c12 + 3.7185 x_w181_c13 + 4.7550 x_w181_c14 + 4.6161 x_w181_c15 + 6.9211 x_w181_c16 + 5.2383 x_w181_c17 + 7.3670 x_w181_c18 + 7.6568 x_w181_c19 + 6.2660 x_w181_c20 + 5.8348 x_w181_c21 + 5.5601 x_w181_c22 + 4.7423 x_w181_c23 + 4.3980 x_w181_c24 + 1.8643 x_w182_c0 + 7.4784 x_w182_c1 + 7.3547 x_w182_c2 + 7.2839 x_w182_c3 + 4.5253 x_w182_c4 + 7.5141 x_w182_c5 + 5.0757 x_w182_c6 + 5.6954 x_w182_c7 + 7.3262 x_w182_c8 + 3.8909 x_w182_c9 + 5.9408 x_w182_c10 + 5.1851 x_w182_c11 + 5.9382 x_w182_c12 + 6.3583 x_w182_c13 + 7.2287 x_w182_c14 + 5.8053 x_w182_c15 + 4.1724 x_w182_c16 + 6.8840 x_w182_c17 + 7.0319 x_w182_c18 + 5.8857 x_w182_c19 + 5.2011 x_w182_c20 + 5.8413 x_w182_c21 + 3.1911 x_w182_c22 + 7.2651 x_w182_c23 + 3.0731 x_w182_c24 + 1.7247 x_w183_c0 + 3.9896 x_w183_c1 + 5.4703 x_w183_c2 + 6.3665 x_w183_c3 + 7.2714 x_w183_c4 + 4.4791 x_w183_c5 + 3.3930 x_w183_c6 + 5.8991 x_w183_c7 + 5.3879 x_w183_c8 + 7.0804 x_w183_c9 + 5.9346 x_w183_c10 + 3.1243 x_w183_c11 + 5.8686 x_w183_c12 + 4.3088 x_w183_c13 + 6.7954 x_w183_c14 + 4.8920 x_w183_c15 + 7.0893 x_w183_c16 + 3.4600 x_w183_c17 + 3.1564 x_w183_c18 + 5.8633 x_w183_c19 + 4.7318 x_w183_c20 + 3.9402 x_w183_c21 + 3.9193 x_w183_c22 + 7.8033 x_w183_c23 + 5.3999 x_w183_c24 + 0.5851 x_w184_c0 + 7.1242 x_w184_c1 + 3.7744 x_w184_c2 + 4.2183 x_w184_c3 + 5.3404 x_w184_c4 + 7.9621 x_w184_c5 + 4.5780 x_w184_c6 + 5.4201 x_w184_c7 + 3.9101 x_w184_c8 + 5.7155 x_w184_c9 + 6.5740 x_w184_c10 + 6.7754 x_w184_c11 + 3.3882 x_w184_c12 + 3.1057 x_w184_c13 + 4.1047 x_w184_c14 + 6.3401 x_w184_c15 + 3.7691 x_w184_c16 + 3.3921 x_w184_c17 + 6.9756 x_w184_c18 + 3.0840 x_w184_c19 + 5.9179 x_w184_c20 + 4.2942 x_w184_c21 + 5.2455 x_w184_c22 + 6.0542 x_w184_c23 + 5.8896 x_w184_c24 + 1.4656 x_w185_c0 + 7.0438 x_w185_c1 + 5.9277 x_w185_c2 + 4.9011 x_w185_c3 + 3.6177 x_w185_c4 + 3.9927 x_w185_c5 + 3.0034 x_w185_c6 + 3.0186 x_w185_c7 + 6.2182 x_w185_c8 + 3.2103 x_w185_c9 + 5.6331 x_w185_c10 + 6.2733 x_w185_c11 + 7.5118 x_w185_c12 + 7.4131 x_w185_c13 + 6.0064 x_w185_c14 + 3.8158 x_w185_c15 + 5.9856 x_w185_c16 + 5.7851 x_w185_c17 + 5.7035 x_w185_c18 + 5.3761 x_w185_c19 + 4.0183 x_w185_c20 + 6.0427 x_w185_c21 + 7.2283 x_w185_c22 + 3.9094 x_w185_c23 + 6.2494 x_w185_c24 + 1.2669 x_w186_c0 + 6.5005 x_w186_c1 + 6.9588 x_w186_c2 + 5.7903 x_w186_c3 + 3.1221 x_w186_c4 + 6.0941 x_w186_c5 + 4.5584 x_w186_c6 + 5.2930 x_w186_c7 + 6.2374 x_w186_c8 + 6.1219 x_w186_c9 + 3.7788 x_w186_c10 + 6.0081 x_w186_c11 + 7.1444 x_w186_c12 + 3.3772 x_w186_c13 + 7.3596 x_w186_c14 + 5.5501 x_w186_c15 + 6.8394 x_w186_c16 + 4.1133 x_w186_c17 + 7.1564 x_w186_c18 + 4.6666 x_w186_c19 + 6.9005 x_w186_c20 + 3.1071 x_w186_c21 + 6.9540 x_w186_c22 + 5.7164 x_w186_c23 + 7.4357 x_w186_c24 + 0.7813 x_w187_c0 + 7.1764 x_w187_c1 + 7.2580 x_w187_c2 + 5.4152 x_w187_c3 + 7.8166 x_w187_c4 + 4.2850 x_w187_c5 + 3.7904 x_w187_c6 + 7.0107 x_w187_c7 + 6.1335 x_w187_c8 + 3.3200 x_w187_c9 + 7.4944 x_w187_c10 + 5.2147 x_w187_c11 + 4.5641 x_w187_c12 + 3.1302 x_w187_c13 + 7.9695 x_w187_c14 + 7.7613 x_w187_c15 + 4.6515 x_w187_c16 + 6.6437 x_w187_c17 + 4.4386 x_w187_c18 + 5.6540 x_w187_c19 + 3.0080 x_w187_c20 + 7.1465 x_w187_c21 + 5.2117 x_w187_c22 + 6.5205 x_w187_c23 + 7.7276 x_w187_c24 + 1.3433 x_w188_c0 + 7.1105 x_w188_c1 + 6.5931 x_w188_c2 + 3.1135 x_w188_c3 + 7.3097 x_w188_c4 + 3.1505 x_w188_c5 + 4.4656 x_w188_c6 + 6.6410 x_w188_c7 + 7.8195 x_w188_c8 + 5.6498 x_w188_c9 + 5.9958 x_w188_c10 + 5.1549 x_w188_c11 + 7.5216 x_w188_c12 + 6.9707 x_w188_c13 + 7.4787 x_w188_c14 + 6.5001 x_w188_c15 + 4.5215 x_w188_c16 + 6.0502 x_w188_c17 + 4.8503 x_w188_c18 + 7.7916 x_w188_c19 + 4.2944 x_w188_c20 + 5.0713 x_w188_c21 + 7.7615 x_w188_c22 + 3.7871 x_w188_c23 + 5.5777 x_w188_c24 + 0.8081 x_w189_c0 + 5.2933 x_w189_c1 + 7.0714 x_w189_c2 + 6.6861 x_w189_c3 + 4.3494 x_w189_c4 + 6.2434 x_w189_c5 + 6.0512 x_w189_c6 + 4.5172 x_w189_c7 + 7.6964 x_w189_c8 + 7.5378 x_w189_c9 + 5.6546 x_w189_c10 + 6.9727 x_w189_c11 + 3.5305 x_w189_c12 + 5.1969 x_w189_c13 + 6.2003 x_w189_c14 + 6.9379 x_w189_c15 + 3.1962 x_w189_c16 + 3.5929 x_w189_c17 + 5.5022 x_w189_c18 + 4.8876 x_w189_c19 + 6.9926 x_w189_c20 + 4.7118 x_w189_c21 + 7.2395 x_w189_c22 + 6.8455 x_w189_c23 + 4.8771 x_w189_c24 + 1.3029 x_w190_c0 + 3.2733 x_w190_c1 + 5.4439 x_w190_c2 + 5.8849 x_w190_c3 + 5.1438 x_w190_c4 + 6.0906 x_w190_c5 + 6.1888 x_w190_c6 + 3.3544 x_w190_c7 + 5.1634 x_w190_c8 + 4.1583 x_w190_c9 + 7.5942 x_w190_c10 + 5.4759 x_w190_c11 + 4.2076 x_w190_c12 + 3.3456 x_w190_c13 + 7.7576 x_w190_c14 + 6.9102 x_w190_c15 + 6.1197 x_w190_c16 + 3.2904 x_w190_c17 + 7.9046 x_w190_c18 + 5.1142 x_w190_c19 + 6.0668 x_w190_c20 + 5.0537 x_w190_c21 + 7.3147 x_w190_c22 + 6.5632 x_w190_c23 + 7.1707 x_w190_c24 + 1.1937 x_w191_c0 + 7.7121 x_w191_c1 + 7.3892 x_w191_c2 + 6.1140 x_w191_c3 + 6.8096 x_w191_c4 + 3.1553 x_w191_c5 + 5.2234 x_w191_c6 + 6.3092 x_w191_c7 + 4.5583 x_w191_c8 + 5.1583 x_w191_c9 + 4.0401 x_w191_c10 + 6.9467 x_w191_c11 + 3.3547 x_w191_c12 + 6.5995 x_w191_c13 + 3.0213 x_w191_c14 + 3.7186 x_w191_c15 + 3.0501 x_w191_c16 + 5.9165 x_w191_c17 + 6.7528 x_w191_c18 + 3.2314 x_w191_c19 + 4.5488 x_w191_c20 + 7.4219 x_w191_c21 + 3.1133 x_w191_c22 + 5.9221 x_w191_c23 + 4.5464 x_w191_c24 + 0.6981 x_w192_c0 + 4.0661 x_w192_c1 + 4.5084 x_w192_c2 + 6.7647 x_w192_c3 + 7.6566 x_w192_c4 + 3.0238 x_w192_c5 + 3.0887 x_w192_c6 + 6.6960 x_w192_c7 + 3.3117 x_w192_c8 + 3.3245 x_w192_c9 + 7.1916 x_w192_c10 + 4.6648 x_w192_c11 + 4.4678 x_w192_c12 + 3.5602 x_w192_c13 + 5.8301 x_w192_c14 + 3.2186 x_w192_c15 + 5.8197 x_w192_c16 + 5.3851 x_w192_c17 + 7.3114 x_w192_c18 + 4.0135 x_w192_c19 + 4.3783 x_w192_c20 + 5.3611 x_w192_c21 + 6.5154 x_w192_c22 + 5.0179 x_w192_c23 + 6.5681 x_w192_c24 + 1.1533 x_w193_c0 + 5.7514 x_w193_c1 + 3.2336 x_w193_c2 + 5.4336 x_w193_c3 + 6.4566 x_w193_c4 + 3.4564 x_w193_c5 + 3.6662 x_w193_c6 + 5.0445 x_w193_c7 + 6.3799 x_w193_c8 + 4.0045 x_w193_c9 + 6.3534 x_w193_c10 + 3.9698 x_w193_c11 + 3.5992 x_w193_c12 + 4.3402 x_w193_c13 + 4.6486 x_w193_c14 + 4.9996 x_w193_c15 + 4.5938 x_w193_c16 + 5.2336 x_w193_c17 + 6.8930 x_w193_c18 + 4.1940 x_w193_c19 + 4.7483 x_w193_c20 + 7.9782 x_w193_c21 + 7.9849 x_w193_c22 + 4.4450 x_w193_c23 + 6.4946 x_w193_c24 + 1.1494 x_w194_c0 + 3.5518 x_w194_c1 + 4.8491 x_w194_c2 + 3.2225 x_w194_c3 + 3.4098 x_w194_c4 + 4.6866 x_w194_c5 + 6.4857 x_w194_c6 + 5.0447 x_w194_c7 + 4.2250 x_w194_c8 + 4.4615 x_w194_c9 + 3.8196 x_w194_c10 + 7.2899 x_w194_c11 + 3.2096 x_w194_c12 + 6.9160 x_w194_c13 + 4.7548 x_w194_c14 + 6.3352 x_w194_c15 + 7.8356 x_w194_c16 + 4.2504 x_w194_c17 + 4.6754 x_w194_c18 + 4.4859 x_w194_c19 + 5.2306 x_w194_c20 + 7.5788 x_w194_c21 + 3.3759 x_w194_c22 + 3.6175 x_w194_c23 + 3.9080 x_w194_c24 + 0.9567 x_w195_c0 + 6.9533 x_w195_c1 + 3.5902 x_w195_c2 + 5.5346 x_w195_c3 + 4.1541 x_w195_c4 + 4.4944 x_w195_c5 + 5.7875 x_w195_c6 + 3.6306 x_w195_c7 + 5.6662 x_w195_c8 + 3.2815 x_w195_c9 + 7.4491 x_w195_c10 + 6.0451 x_w195_c11 + 5.6502 x_w195_c12 + 6.2926 x_w195_c13 + 7.0086 x_w195_c14 + 6.9562 x_w195_c15 + 5.6550 x_w195_c16 + 7.9611 x_w195_c17 + 7.5667 x_w195_c18 + 6.9474 x_w195_c19 + 7.3927 x_w195_c20 + 5.9706 x_w195_c21 + 6.7869 x_w195_c22 + 3.2348 x_w195_c23 + 4.7578 x_w195_c24 + 1.1561 x_w196_c0 + 4.8789 x_w196_c1 + 7.4400 x_w196_c2 + 3.3358 x_w196_c3 + 6.8547 x_w196_c4 + 7.6214 x_w196_c5 + 5.1150 x_w196_c6 + 4.4804 x_w196_c7 + 3.6613 x_w196_c8 + 7.2439 x_w196_c9 + 5.2524 x_w196_c10 + 4.8652 x_w196_c11 + 6.2814 x_w196_c12 + 3.1616 x_w196_c13 + 4.8154 x_w196_c14 + 6.9942 x_w196_c15 + 3.4512 x_w196_c16 + 5.5479 x_w196_c17 + 7.1516 x_w196_c18 + 6.8312 x_w196_c19 + 4.5456 x_w196_c20 + 6.4914 x_w196_c21 + 5.2752 x_w196_c22 + 3.9034 x_w196_c23 + 6.0755 x_w196_c24 + 1.2973 x_w197_c0 + 4.6257 x_w197_c1 + 6.2617 x_w197_c2 + 5.2584 x_w197_c3 + 4.3680 x_w197_c4 + 5.9512 x_w197_c5 + 3.1238 x_w197_c6 + 3.2855 x_w197_c7 + 4.8584 x_w197_c8 + 7.7852 x_w197_c9 + 6.2040 x_w197_c10 + 6.5839 x_w197_c11 + 4.2987 x_w197_c12 + 7.4993 x_w197_c13 + 3.6101 x_w197_c14 + 3.2946 x_w197_c15 + 6.0411 x_w197_c16 + 3.5693 x_w197_c17 + 5.1240 x_w197_c18 + 6.8684 x_w197_c19 + 4.9107 x_w197_c20 + 6.5713 x_w197_c21 + 6.3957 x_w197_c22 + 7.4854 x_w197_c23 + 6.3293 x_w197_c24 + 1.4783 x_w198_c0 + 5.6889 x_w198_c1 + 3.0229 x_w198_c2 + 5.7084 x_w198_c3 + 7.7188 x_w198_c4 + 6.1496 x_w198_c5 + 4.4423 x_w198_c6 + 6.3664 x_w198_c7 + 7.4444 x_w198_c8 + 6.7967 x_w198_c9 + 5.0542 x_w198_c10 + 4.7153 x_w198_c11 + 5.3049 x_w198_c12 + 6.2482 x_w198_c13 + 6.7238 x_w198_c14 + 5.7490 x_w198_c15 + 6.0619 x_w198_c16 + 6.9525 x_w198_c17 + 4.6033 x_w198_c18 + 5.9384 x_w198_c19 + 6.7806 x_w198_c20 + 5.4669 x_w198_c21 + 7.1757 x_w198_c22 + 6.4892 x_w198_c23 + 4.5085 x_w198_c24 + 1.7135 x_w199_c0 + 6.9421 x_w199_c1 + 6.8985 x_w199_c2 + 3.2890 x_w199_c3 + 7.2657 x_w199_c4 + 4.1810 x_w199_c5 + 7.2877 x_w199_c6 + 6.9873 x_w199_c7 + 5.4849 x_w199_c8 + 6.9723 x_w199_c9 + 3.9460 x_w199_c10 + 6.7105 x_w199_c11 + 3.8814 x_w199_c12 + 3.9517 x_w199_c13 + 7.8315 x_w199_c14 + 3.3559 x_w199_c15 + 7.0317 x_w199_c16 + 4.8676 x_w199_c17 + 5.3776 x_w199_c18 + 4.2772 x_w199_c19 + 3.7162 x_w199_c20 + 3.1210 x_w199_c21 + 6.7449 x_w199_c22 + 4.4853 x_w199_c23 + 7.8986 x_w199_c24 + 1.5598 x_w200_c0 + 4.0986 x_w200_c1 + 4.2887 x_w200_c2 + 6.6801 x_w200_c3 + 5.3726 x_w200_c4 + 3.7616 x_w200_c5 + 7.1539 x_w200_c6 + 4.1574 x_w200_c7 + 4.2081 x_w200_c8 + 6.9643 x_w200_c9 + 6.5787 x_w200_c10 + 6.6787 x_w200_c11 + 4.2788 x_w200_c12 + 4.6641 x_w200_c13 + 7.7945 x_w200_c14 + 6.8206 x_w200_c15 + 5.5585 x_w200_c16 + 4.8137 x_w200_c17 + 5.7176 x_w200_c18 + 4.5970 x_w200_c19 + 5.7288 x_w200_c20 + 5.2198 x_w200_c21 + 6.6950 x_w200_c22 + 7.6694 x_w200_c23 + 7.5407 x_w200_c24 + 0.8829 x_w201_c0 + 4.5778 x_w201_c1 + 7.2489 x_w201_c2 + 5.5080 x_w201_c3 + 4.7079 x_w201_c4 + 3.5769 x_w201_c5 + 7.6851 x_w201_c6 + 6.8403 x_w201_c7 + 5.7209 x_w201_c8 + 5.8067 x_w201_c9 + 4.4176 x_w201_c10 + 7.0646 x_w201_c11 + 7.7343 x_w201_c12 + 4.2280 x_w201_c13 + 3.4944 x_w201_c14 + 6.0159 x_w201_c15 + 3.8631 x_w201_c16 + 4.4400 x_w201_c17 + 5.9540 x_w201_c18 + 7.7375 x_w201_c19 + 4.8243 x_w201_c20 + 6.9586 x_w201_c21 + 5.3758 x_w201_c22 + 3.8163 x_w201_c23 + 5.0219 x_w201_c24 + 0.8303 x_w202_c0 + 4.3305 x_w202_c1 + 5.4249 x_w202_c2 + 6.3979 x_w202_c3 + 5.1011 x_w202_c4 + 4.5589 x_w202_c5 + 5.9926 x_w202_c6 + 4.0488 x_w202_c7 + 5.6484 x_w202_c8 + 7.1597 x_w202_c9 + 7.1984 x_w202_c10 + 3.7216 x_w202_c11 + 3.3648 x_w202_c12 + 4.4029 x_w202_c13 + 3.0844 x_w202_c14 + 3.9958 x_w202_c15 + 3.7923 x_w202_c16 + 3.8662 x_w202_c17 + 3.3073 x_w202_c18 + 7.4220 x_w202_c19 + 7.7728 x_w202_c20 + 6.4372 x_w202_c21 + 3.4657 x_w202_c22 + 3.2461 x_w202_c23 + 5.2841 x_w202_c24 + 1.3997 x_w203_c0 + 3.1858 x_w203_c1 + 3.1485 x_w203_c2 + 7.4301 x_w203_c3 + 5.0390 x_w203_c4 + 3.9246 x_w203_c5 + 7.8625 x_w203_c6 + 3.4224 x_w203_c7 + 5.1481 x_w203_c8 + 6.4559 x_w203_c9 + 5.6100 x_w203_c10 + 3.3708 x_w203_c11 + 3.4682 x_w203_c12 + 3.5527 x_w203_c13 + 4.7028 x_w203_c14 + 5.9969 x_w203_c15 + 3.1227 x_w203_c16 + 4.4797 x_w203_c17 + 6.5523 x_w203_c18 + 7.4228 x_w203_c19 + 6.2963 x_w203_c20 + 3.8760 x_w203_c21 + 3.4644 x_w203_c22 + 5.9547 x_w203_c23 + 4.3511 x_w203_c24 + 1.9879 x_w204_c0 + 6.6629 x_w204_c1 + 5.9146 x_w204_c2 + 7.6913 x_w204_c3 + 7.2686 x_w204_c4 + 3.6954 x_w204_c5 + 4.7574 x_w204_c6 + 4.3017 x_w204_c7 + 6.1816 x_w204_c8 + 3.8204 x_w204_c9 + 7.6415 x_w204_c10 + 7.6590 x_w204_c11 + 6.4702 x_w204_c12 + 5.9227 x_w204_c13 + 6.8269 x_w204_c14 + 7.1455 x_w204_c15 + 3.9248 x_w204_c16 + 3.5104 x_w204_c17 + 4.6382 x_w204_c18 + 7.6451 x_w204_c19 + 4.5522 x_w204_c20 + 6.2654 x_w204_c21 + 4.7394 x_w204_c22 + 7.9332 x_w204_c23 + 4.5738 x_w204_c24 + 1.4163 x_w205_c0 + 4.4443 x_w205_c1 + 5.7086 x_w205_c2 + 3.1299 x_w205_c3 + 4.7003 x_w205_c4 + 4.6672 x_w205_c5 + 7.5251 x_w205_c6 + 4.8029 x_w205_c7 + 4.0319 x_w205_c8 + 5.7948 x_w205_c9 + 5.0216 x_w205_c10 + 4.8914 x_w205_c11 + 3.9954 x_w205_c12 + 4.6757 x_w205_c13 + 4.4929 x_w205_c14 + 7.9035 x_w205_c15 + 4.0917 x_w205_c16 + 5.1468 x_w205_c17 + 4.0001 x_w205_c18 + 3.6759 x_w205_c19 + 6.6543 x_w205_c20 + 6.6724 x_w205_c21 + 3.7136 x_w205_c22 + 3.7301 x_w205_c23 + 4.6940 x_w205_c24 + 1.3974 x_w206_c0 + 7.7464 x_w206_c1 + 6.7488 x_w206_c2 + 6.5389 x_w206_c3 + 6.3456 x_w206_c4 + 3.3553 x_w206_c5 + 3.7291 x_w206_c6 + 7.6917 x_w206_c7 + 7.9006 x_w206_c8 + 7.1669 x_w206_c9 + 3.6128 x_w206_c10 + 5.4756 x_w206_c11 + 4.9784 x_w206_c12 + 7.2963 x_w206_c13 + 7.4941 x_w206_c14 + 5.5994 x_w206_c15 + 3.0153 x_w206_c16 + 5.4194 x_w206_c17 + 7.7783 x_w206_c18 + 5.3047 x_w206_c19 + 7.0134 x_w206_c20 + 7.3749 x_w206_c21 + 5.5529 x_w206_c22 + 4.9706 x_w206_c23 + 4.2137 x_w206_c24 + 1.2343 x_w207_c0 + 5.1918 x_w207_c1 + 5.7631 x_w207_c2 + 3.0401 x_w207_c3 + 6.0250 x_w207_c4 + 7.0497 x_w207_c5 + 5.9985 x_w207_c6 + 7.0433 x_w207_c7 + 3.9159 x_w207_c8 + 6.6143 x_w207_c9 + 4.7715 x_w207_c10 + 6.2125 x_w207_c11 + 6.8564 x_w207_c12 + 5.9135 x_w207_c13 + 4.5703 x_w207_c14 + 4.5005 x_w207_c15 + 5.7925 x_w207_c16 + 6.6224 x_w207_c17 + 7.6093 x_w207_c18 + 7.9414 x_w207_c19 + 6.2967 x_w207_c20 + 6.1740 x_w207_c21 + 3.4519 x_w207_c22 + 6.5852 x_w207_c23 + 7.0691 x_w207_c24 + 1.1670 x_w208_c0 + 5.7466 x_w208_c1 + 6.3957 x_w208_c2 + 4.6828 x_w208_c3 + 4.6347 x_w208_c4 + 5.2270 x_w208_c5 + 6.3081 x_w208_c6 + 5.2084 x_w208_c7 + 4.2990 x_w208_c8 + 6.1752 x_w208_c9 + 4.6772 x_w208_c10 + 3.6859 x_w208_c11 + 4.3856 x_w208_c12 + 3.4957 x_w208_c13 + 7.1741 x_w208_c14 + 7.5143 x_w208_c15 + 6.5052 x_w208_c16 + 7.8151 x_w208_c17 + 4.1792 x_w208_c18 + 4.4501 x_w208_c19 + 6.7264 x_w208_c20 + 6.0149 x_w208_c21 + 5.6896 x_w208_c22 + 4.1015 x_w208_c23 + 6.3638 x_w208_c24 + 1.0318 x_w209_c0 + 4.6005 x_w209_c1 + 4.4472 x_w209_c2 + 5.4285 x_w209_c3 + 6.9137 x_w209_c4 + 3.0280 x_w209_c5 + 7.4483 x_w209_c6 + 6.6439 x_w209_c7 + 5.0211 x_w209_c8 + 5.9955 x_w209_c9 + 7.6503 x_w209_c10 + 6.4284 x_w209_c11 + 4.3050 x_w209_c12 + 7.3610 x_w209_c13 + 5.4635 x_w209_c14 + 7.6643 x_w209_c15 + 7.8988 x_w209_c16 + 7.0146 x_w209_c17 + 6.6638 x_w209_c18 + 5.6299 x_w209_c19 + 4.0621 x_w209_c20 + 3.4642 x_w209_c21 + 5.2492 x_w209_c22 + 7.0458 x_w209_c23 + 3.0396 x_w209_c24 + 1.4708 x_w210_c0 + 4.6494 x_w210_c1 + 7.5797 x_w210_c2 + 4.5468 x_w210_c3 + 6.4980 x_w210_c4 + 5.5228 x_w210_c5 + 7.3856 x_w210_c6 + 5.5253 x_w210_c7 + 7.9199 x_w210_c8 + 6.2512 x_w210_c9 + 5.4626 x_w210_c10 + 7.1240 x_w210_c11 + 7.3438 x_w210_c12 + 4.5129 x_w210_c13 + 3.7434 x_w210_c14 + 6.4062 x_w210_c15 + 7.5695 x_w210_c16 + 7.6157 x_w210_c17 + 7.1674 x_w210_c18 + 6.6769 x_w210_c19 + 3.3040 x_w210_c20 + 3.4845 x_w210_c21 + 6.9853 x_w210_c22 + 7.8362 x_w210_c23 + 5.6128 x_w210_c24 + 1.1698 x_w211_c0 + 3.4460 x_w211_c1 + 7.5471 x_w211_c2 + 4.9947 x_w211_c3 + 4.1064 x_w211_c4 + 6.4621 x_w211_c5 + 3.9385 x_w211_c6 + 3.4524 x_w211_c7 + 6.2160 x_w211_c8 + 6.8444 x_w211_c9 + 5.0958 x_w211_c10 + 5.4654 x_w211_c11 + 7.5019 x_w211_c12 + 5.2485 x_w211_c13 + 7.5221 x_w211_c14 + 5.5322 x_w211_c15 + 3.7604 x_w211_c16 + 5.8812 x_w211_c17 + 4.0209 x_w211_c18 + 3.7010 x_w211_c19 + 7.4242 x_w211_c20 + 3.1558 x_w211_c21 + 5.6616 x_w211_c22 + 7.2272 x_w211_c23 + 5.1689 x_w211_c24 + 0.6691 x_w212_c0 + 6.2945 x_w212_c1 + 5.4510 x_w212_c2 + 6.5463 x_w212_c3 + 4.1840 x_w212_c4 + 5.9032 x_w212_c5 + 4.8054 x_w212_c6 + 7.7044 x_w212_c7 + 6.2665 x_w212_c8 + 3.9301 x_w212_c9 + 4.3858 x_w212_c10 + 5.5899 x_w212_c11 + 5.3094 x_w212_c12 + 4.2757 x_w212_c13 + 6.0300 x_w212_c14 + 3.2099 x_w212_c15 + 5.9197 x_w212_c16 + 5.4209 x_w212_c17 + 3.6607 x_w212_c18 + 5.8981 x_w212_c19 + 6.1464 x_w212_c20 + 4.3832 x_w212_c21 + 4.8010 x_w212_c22 + 3.0315 x_w212_c23 + 6.7626 x_w212_c24 + 0.9336 x_w213_c0 + 7.7596 x_w213_c1 + 3.9573 x_w213_c2 + 7.4572 x_w213_c3 + 3.8332 x_w213_c4 + 3.5180 x_w213_c5 + 4.8621 x_w213_c6 + 6.8927 x_w213_c7 + 3.8724 x_w213_c8 + 6.0176 x_w213_c9 + 7.1727 x_w213_c10 + 3.3714 x_w213_c11 + 7.7629 x_w213_c12 + 6.3133 x_w213_c13 + 6.4742 x_w213_c14 + 3.3900 x_w213_c15 + 7.3918 x_w213_c16 + 6.6642 x_w213_c17 + 3.5254 x_w213_c18 + 6.1164 x_w213_c19 + 5.3087 x_w213_c20 + 4.7004 x_w213_c21 + 5.8817 x_w213_c22 + 7.2438 x_w213_c23 + 4.4778 x_w213_c24 + 1.0804 x_w214_c0 + 3.8750 x_w214_c1 + 7.3479 x_w214_c2 + 6.9479 x_w214_c3 + 7.2667 x_w214_c4 + 7.7328 x_w214_c5 + 3.3700 x_w214_c6 + 5.3794 x_w214_c7 + 3.4944 x_w214_c8 + 7.1547 x_w214_c9 + 5.5585 x_w214_c10 + 6.1457 x_w214_c11 + 5.0520 x_w214_c12 + 5.1241 x_w214_c13 + 7.7301 x_w214_c14 + 6.0360 x_w214_c15 + 6.5586 x_w214_c16 + 3.3609 x_w214_c17 + 4.0298 x_w214_c18 + 4.3388 x_w214_c19 + 3.0217 x_w214_c20 + 4.0170 x_w214_c21 + 5.9584 x_w214_c22 + 7.0059 x_w214_c23 + 7.6660 x_w214_c24 + 1.8969 x_w215_c0 + 6.3707 x_w215_c1 + 4.8178 x_w215_c2 + 5.6305 x_w215_c3 + 4.4078 x_w215_c4 + 6.6254 x_w215_c5 + 7.7105 x_w215_c6 + 6.5550 x_w215_c7 + 6.7177 x_w215_c8 + 5.9381 x_w215_c9 + 7.5665 x_w215_c10 + 3.2309 x_w215_c11 + 3.7832 x_w215_c12 + 6.1542 x_w215_c13 + 4.9717 x_w215_c14 + 6.5162 x_w215_c15 + 6.6578 x_w215_c16 + 5.3888 x_w215_c17 + 7.4631 x_w215_c18 + 7.2959 x_w215_c19 + 5.9572 x_w215_c20 + 4.5951 x_w215_c21 + 5.8830 x_w215_c22 + 3.6738 x_w215_c23 + 7.5518 x_w215_c24 + 1.3778 x_w216_c0 + 4.7167 x_w216_c1 + 6.7780 x_w216_c2 + 3.9380 x_w216_c3 + 6.6133 x_w216_c4 + 5.7788 x_w216_c5 + 6.3110 x_w216_c6 + 4.3169 x_w216_c7 + 6.8795 x_w216_c8 + 4.5825 x_w216_c9 + 4.4480 x_w216_c10 + 3.6545 x_w216_c11 + 5.6595 x_w216_c12 + 5.8286 x_w216_c13 + 4.8438 x_w216_c14 + 6.0668 x_w216_c15 + 6.1820 x_w216_c16 + 7.4755 x_w216_c17 + 6.1405 x_w216_c18 + 6.0045 x_w216_c19 + 7.6187 x_w216_c20 + 6.9419 x_w216_c21 + 6.5625 x_w216_c22 + 5.3777 x_w216_c23 + 4.1487 x_w216_c24 + 0.8169 x_w217_c0 + 7.5725 x_w217_c1 + 6.1338 x_w217_c2 + 5.9385 x_w217_c3 + 6.2629 x_w217_c4 + 4.2841 x_w217_c5 + 5.1508 x_w217_c6 + 4.2134 x_w217_c7 + 4.3487 x_w217_c8 + 6.9274 x_w217_c9 + 5.9724 x_w217_c10 + 6.4759 x_w217_c11 + 3.3127 x_w217_c12 + 6.4154 x_w217_c13 + 6.7092 x_w217_c14 + 4.0847 x_w217_c15 + 4.1325 x_w217_c16 + 5.3943 x_w217_c17 + 5.7933 x_w217_c18 + 6.4257 x_w217_c19 + 5.8493 x_w217_c20 + 4.4518 x_w217_c21 + 7.2801 x_w217_c22 + 3.2868 x_w217_c23 + 7.7166 x_w217_c24 + 1.1616 x_w218_c0 + 5.8813 x_w218_c1 + 4.7602 x_w218_c2 + 4.5061 x_w218_c3 + 3.3052 x_w218_c4 + 6.1541 x_w218_c5 + 4.5845 x_w218_c6 + 4.8296 x_w218_c7 + 4.0616 x_w218_c8 + 3.2168 x_w218_c9 + 5.2033 x_w218_c10 + 5.3784 x_w218_c11 + 3.5383 x_w218_c12 + 3.1457 x_w218_c13 + 3.2956 x_w218_c14 + 7.5282 x_w218_c15 + 6.8722 x_w218_c16 + 4.0266 x_w218_c17 + 5.1717 x_w218_c18 + 3.2904 x_w218_c19 + 4.9279 x_w218_c20 + 5.2244 x_w218_c21 + 3.1324 x_w218_c22 + 6.0089 x_w218_c23 + 5.7632 x_w218_c24 + 0.5030 x_w219_c0 + 7.4683 x_w219_c1 + 5.7410 x_w219_c2 + 7.5954 x_w219_c3 + 7.5455 x_w219_c4 + 6.7638 x_w219_c5 + 5.7290 x_w219_c6 + 5.8173 x_w219_c7 + 5.0748 x_w219_c8 + 4.1224 x_w219_c9 + 5.8619 x_w219_c10 + 4.9979 x_w219_c11 + 5.8916 x_w219_c12 + 7.9662 x_w219_c13 + 6.0149 x_w219_c14 + 4.8062 x_w219_c15 + 4.1701 x_w219_c16 + 6.7221 x_w219_c17 + 7.9173 x_w219_c18 + 3.1333 x_w219_c19 + 4.8210 x_w219_c20 + 3.6826 x_w219_c21 + 6.7056 x_w219_c22 + 4.4844 x_w219_c23 + 5.1545 x_w219_c24 + 0.8821 x_w220_c0 + 5.9675 x_w220_c1 + 3.2371 x_w220_c2 + 7.1477 x_w220_c3 + 3.2116 x_w220_c4 + 5.8217 x_w220_c5 + 7.6996 x_w220_c6 + 7.4830 x_w220_c7 + 7.7316 x_w220_c8 + 3.6614 x_w220_c9 + 5.1428 x_w220_c10 + 6.3298 x_w220_c11 + 3.3954 x_w220_c12 + 5.5587 x_w220_c13 + 7.3759 x_w220_c14 + 5.3808 x_w220_c15 + 4.3048 x_w220_c16 + 4.6336 x_w220_c17 + 4.4706 x_w220_c18 + 5.7676 x_w220_c19 + 4.5783 x_w220_c20 + 5.8531 x_w220_c21 + 5.8394 x_w220_c22 + 6.9929 x_w220_c23 + 4.1737 x_w220_c24 + 1.1122 x_w221_c0 + 5.2366 x_w221_c1 + 5.4816 x_w221_c2 + 6.2080 x_w221_c3 + 4.1229 x_w221_c4 + 5.7636 x_w221_c5 + 4.8873 x_w221_c6 + 5.3921 x_w221_c7 + 5.1467 x_w221_c8 + 3.8775 x_w221_c9 + 4.4325 x_w221_c10 + 6.0810 x_w221_c11 + 5.2415 x_w221_c12 + 5.5393 x_w221_c13 + 3.5914 x_w221_c14 + 5.5149 x_w221_c15 + 7.0829 x_w221_c16 + 6.2054 x_w221_c17 + 4.6417 x_w221_c18 + 6.0182 x_w221_c19 + 6.8325 x_w221_c20 + 3.3044 x_w221_c21 + 5.4256 x_w221_c22 + 7.0370 x_w221_c23 + 3.8239 x_w221_c24 + 0.6420 x_w222_c0 + 7.0751 x_w222_c1 + 3.0189 x_w222_c2 + 5.9702 x_w222_c3 + 6.8638 x_w222_c4 + 5.2379 x_w222_c5 + 5.9593 x_w222_c6 + 5.2823 x_w222_c7 + 6.8942 x_w222_c8 + 3.4230 x_w222_c9 + 3.4660 x_w222_c10 + 5.1533 x_w222_c11 + 7.0774 x_w222_c12 + 3.1504 x_w222_c13 + 7.9752 x_w222_c14 + 5.3102 x_w222_c15 + 7.3926 x_w222_c16 + 7.6455 x_w222_c17 + 3.4072 x_w222_c18 + 4.9112 x_w222_c19 + 3.6044 x_w222_c20 + 3.6674 x_w222_c21 + 5.7370 x_w222_c22 + 7.1843 x_w222_c23 + 6.1724 x_w222_c24 + 1.3677 x_w223_c0 + 5.7766 x_w223_c1 + 4.1293 x_w223_c2 + 4.1042 x_w223_c3 + 3.2394 x_w223_c4 + 4.2949 x_w223_c5 + 5.9760 x_w223_c6 + 5.8896 x_w223_c7 + 7.9924 x_w223_c8 + 4.8072 x_w223_c9 + 6.3657 x_w223_c10 + 5.8101 x_w223_c11 + 4.9246 x_w223_c12 + 3.8140 x_w223_c13 + 7.1120 x_w223_c14 + 7.1526 x_w223_c15 + 7.3880 x_w223_c16 + 5.6954 x_w223_c17 + 5.7610 x_w223_c18 + 4.9550 x_w223_c19 + 6.1858 x_w223_c20 + 7.0119 x_w223_c21 + 7.7608 x_w223_c22 + 4.2623 x_w223_c23 + 7.7977 x_w223_c24 + 1.4235 x_w224_c0 + 4.2323 x_w224_c1 + 3.9051 x_w224_c2 + 5.1684 x_w224_c3 + 4.6013 x_w224_c4 + 3.7401 x_w224_c5 + 3.4550 x_w224_c6 + 6.0772 x_w224_c7 + 6.0626 x_w224_c8 + 5.3749 x_w224_c9 + 6.3525 x_w224_c10 + 3.4395 x_w224_c11 + 4.7740 x_w224_c12 + 3.1403 x_w224_c13 + 4.0302 x_w224_c14 + 6.2509 x_w224_c15 + 4.3601 x_w224_c16 + 3.1074 x_w224_c17 + 7.1686 x_w224_c18 + 5.9475 x_w224_c19 + 6.7899 x_w224_c20 + 7.8226 x_w224_c21 + 3.1884 x_w224_c22 + 4.6010 x_w224_c23 + 4.0883 x_w224_c24 + 0.7286 x_w225_c0 + 5.1663 x_w225_c1 + 4.1129 x_w225_c2 + 3.1802 x_w225_c3 + 3.3039 x_w225_c4 + 3.9813 x_w225_c5 + 4.7918 x_w225_c6 + 6.9831 x_w225_c7 + 6.6705 x_w225_c8 + 7.6775 x_w225_c9 + 7.9927 x_w225_c10 + 3.9693 x_w225_c11 + 4.9803 x_w225_c12 + 4.0256 x_w225_c13 + 4.2272 x_w225_c14 + 5.4212 x_w225_c15 + 4.6191 x_w225_c16 + 7.7520 x_w225_c17 + 3.0246 x_w225_c18 + 5.2049 x_w225_c19 + 7.0831 x_w225_c20 + 3.3305 x_w225_c21 + 7.8534 x_w225_c22 + 7.3831 x_w225_c23 + 5.6923 x_w225_c24 + 0.6790 x_w226_c0 + 7.3568 x_w226_c1 + 7.2109 x_w226_c2 + 4.9828 x_w226_c3 + 3.1546 x_w226_c4 + 4.3808 x_w226_c5 + 4.2636 x_w226_c6 + 7.3968 x_w226_c7 + 6.7813 x_w226_c8 + 4.0539 x_w226_c9 + 3.7297 x_w226_c10 + 3.8026 x_w226_c11 + 5.5815 x_w226_c12 + 4.1287 x_w226_c13 + 6.7917 x_w226_c14 + 7.8528 x_w226_c15 + 5.2885 x_w226_c16 + 4.7883 x_w226_c17 + 7.4350 x_w226_c18 + 7.7265 x_w226_c19 + 3.5214 x_w226_c20 + 5.9317 x_w226_c21 + 5.0059 x_w226_c22 + 4.7444 x_w226_c23 + 7.6825 x_w226_c24 + 1.2612 x_w227_c0 + 7.6609 x_w227_c1 + 5.7419 x_w227_c2 + 7.8765 x_w227_c3 + 5.4707 x_w227_c4 + 3.4158 x_w227_c5 + 6.7853 x_w227_c6 + 7.4017 x_w227_c7 + 4.4038 x_w227_c8 + 6.9831 x_w227_c9 + 4.2914 x_w227_c10 + 3.7170 x_w227_c11 + 4.4177 x_w227_c12 + 5.1934 x_w227_c13 + 4.0941 x_w227_c14 + 4.7222 x_w227_c15 + 3.5401 x_w227_c16 + 4.2370 x_w227_c17 + 6.2461 x_w227_c18 + 5.0333 x_w227_c19 + 5.7575 x_w227_c20 + 4.4534 x_w227_c21 + 3.7492 x_w227_c22 + 6.9189 x_w227_c23 + 3.9042 x_w227_c24 + 1.9870 x_w228_c0 + 7.7021 x_w228_c1 + 5.2454 x_w228_c2 + 5.2554 x_w228_c3 + 7.9722 x_w228_c4 + 5.4390 x_w228_c5 + 5.2745 x_w228_c6 + 6.6152 x_w228_c7 + 3.4693 x_w228_c8 + 4.7435 x_w228_c9 + 3.3159 x_w228_c10 + 7.2319 x_w228_c11 + 4.3812 x_w228_c12 + 7.2632 x_w228_c13 + 5.2215 x_w228_c14 + 7.9691 x_w228_c15 + 3.1276 x_w228_c16 + 4.3231 x_w228_c17 + 3.1375 x_w228_c18 + 7.6023 x_w228_c19 + 6.5742 x_w228_c20 + 4.1787 x_w228_c21 + 6.9110 x_w228_c22 + 7.8444 x_w228_c23 + 6.0372 x_w228_c24 + 0.9137 x_w229_c0 + 3.1390 x_w229_c1 + 6.3096 x_w229_c2 + 5.4753 x_w229_c3 + 4.0292 x_w229_c4 + 3.5678 x_w229_c5 + 6.9105 x_w229_c6 + 6.6691 x_w229_c7 + 3.7940 x_w229_c8 + 3.3099 x_w229_c9 + 5.5687 x_w229_c10 + 6.4000 x_w229_c11 + 5.6220 x_w229_c12 + 5.2861 x_w229_c13 + 7.1080 x_w229_c14 + 3.2906 x_w229_c15 + 6.1880 x_w229_c16 + 4.6327 x_w229_c17 + 5.8758 x_w229_c18 + 3.3090 x_w229_c19 + 4.2884 x_w229_c20 + 5.5925 x_w229_c21 + 4.2828 x_w229_c22 + 3.1846 x_w229_c23 + 4.2191 x_w229_c24 + 1.9305 x_w230_c0 + 7.2656 x_w230_c1 + 5.9711 x_w230_c2 + 4.4071 x_w230_c3 + 6.5695 x_w230_c4 + 5.5602 x_w230_c5 + 6.9600 x_w230_c6 + 4.7744 x_w230_c7 + 3.7446 x_w230_c8 + 4.9720 x_w230_c9 + 7.1504 x_w230_c10 + 5.0643 x_w230_c11 + 5.0431 x_w230_c12 + 6.8184 x_w230_c13 + 6.5380 x_w230_c14 + 4.3219 x_w230_c15 + 3.1253 x_w230_c16 + 6.9035 x_w230_c17 + 5.0877 x_w230_c18 + 4.2321 x_w230_c19 + 6.4877 x_w230_c20 + 4.1373 x_w230_c21 + 6.9215 x_w230_c22 + 5.8565 x_w230_c23 + 4.7950 x_w230_c24 + 1.2945 x_w231_c0 + 6.9963 x_w231_c1 + 5.6768 x_w231_c2 + 3.6044 x_w231_c3 + 7.8619 x_w231_c4 + 3.7221 x_w231_c5 + 7.3069 x_w231_c6 + 6.8177 x_w231_c7 + 7.8925 x_w231_c8 + 7.5504 x_w231_c9 + 3.2051 x_w231_c10 + 4.9114 x_w231_c11 + 7.7606 x_w231_c12 + 3.7052 x_w231_c13 + 4.1973 x_w231_c14 + 7.1298 x_w231_c15 + 6.5910 x_w231_c16 + 7.5145 x_w231_c17 + 6.1135 x_w231_c18 + 3.1208 x_w231_c19 + 6.5490 x_w231_c20 + 3.5451 x_w231_c21 + 3.0896 x_w231_c22 + 4.9937 x_w231_c23 + 7.8857 x_w231_c24 + 0.8952 x_w232_c0 + 5.6042 x_w232_c1 + 6.6892 x_w232_c2 + 5.9368 x_w232_c3 + 5.1919 x_w232_c4 + 5.7465 x_w232_c5 + 3.8557 x_w232_c6 + 6.9559 x_w232_c7 + 6.8461 x_w232_c8 + 3.8072 x_w232_c9 + 7.3630 x_w232_c10 + 3.3828 x_w232_c11 + 6.7212 x_w232_c12 + 4.3710 x_w232_c13 + 3.8108 x_w232_c14 + 3.4303 x_w232_c15 + 7.6447 x_w232_c16 + 3.3210 x_w232_c17 + 6.3331 x_w232_c18 + 3.6432 x_w232_c19 + 7.2467 x_w232_c20 + 5.2968 x_w232_c21 + 7.5572 x_w232_c22 + 6.8434 x_w232_c23 + 5.1989 x_w232_c24 + 1.9114 x_w233_c0 + 6.4111 x_w233_c1 + 4.9732 x_w233_c2 + 7.8109 x_w233_c3 + 7.4047 x_w233_c4 + 4.5024 x_w233_c5 + 3.6129 x_w233_c6 + 5.2602 x_w233_c7 + 5.6992 x_w233_c8 + 5.7567 x_w233_c9 + 4.5174 x_w233_c10 + 5.7516 x_w233_c11 + 7.8329 x_w233_c12 + 7.0262 x_w233_c13 + 4.4044 x_w233_c14 + 5.0409 x_w233_c15 + 6.9860 x_w233_c16 + 4.9809 x_w233_c17 + 3.5205 x_w233_c18 + 7.6645 x_w233_c19 + 7.1164 x_w233_c20 + 3.8096 x_w233_c21 + 5.6799 x_w233_c22 + 7.5626 x_w233_c23 + 5.2344 x_w233_c24 + 0.7034 x_w234_c0 + 6.7877 x_w234_c1 + 7.7333 x_w234_c2 + 7.7562 x_w234_c3 + 4.9332 x_w234_c4 + 5.8593 x_w234_c5 + 5.9952 x_w234_c6 + 7.5397 x_w234_c7 + 7.3894 x_w234_c8 + 7.7981 x_w234_c9 + 3.8202 x_w234_c10 + 7.9959 x_w234_c11 + 3.5602 x_w234_c12 + 3.0885 x_w234_c13 + 7.6053 x_w234_c14 + 4.6546 x_w234_c15 + 7.4437 x_w234_c16 + 5.2476 x_w234_c17 + 3.2655 x_w234_c18 + 7.5730 x_w234_c19 + 4.8770 x_w234_c20 + 5.0829 x_w234_c21 + 7.2973 x_w234_c22 + 7.8211 x_w234_c23 + 6.6826 x_w234_c24 + 1.6671 x_w235_c0 + 5.6381 x_w235_c1 + 7.0280 x_w235_c2 + 3.3119 x_w235_c3 + 5.5141 x_w235_c4 + 6.4596 x_w235_c5 + 4.4768 x_w235_c6 + 5.2144 x_w235_c7 + 5.5001 x_w235_c8 + 5.9590 x_w235_c9 + 3.3508 x_w235_c10 + 4.1231 x_w235_c11 + 4.4749 x_w235_c12 + 6.9617 x_w235_c13 + 4.8043 x_w235_c14 + 5.0459 x_w235_c15 + 3.6484 x_w235_c16 + 5.5626 x_w235_c17 + 5.1399 x_w235_c18 + 6.7092 x_w235_c19 + 5.2875 x_w235_c20 + 3.8625 x_w235_c21 + 3.2987 x_w235_c22 + 5.4222 x_w235_c23 + 4.5172 x_w235_c24 + 1.8915 x_w236_c0 + 7.0675 x_w236_c1 + 6.1731 x_w236_c2 + 6.6956 x_w236_c3 + 5.4686 x_w236_c4 + 5.3639 x_w236_c5 + 3.8547 x_w236_c6 + 3.4660 x_w236_c7 + 6.6803 x_w236_c8 + 7.6817 x_w236_c9 + 7.0925 x_w236_c10 + 3.6706 x_w236_c11 + 7.4853 x_w236_c12 + 5.9526 x_w236_c13 + 6.6053 x_w236_c14 + 4.5956 x_w236_c15 + 3.5578 x_w236_c16 + 4.8292 x_w236_c17 + 3.8859 x_w236_c18 + 7.9252 x_w236_c19 + 6.9490 x_w236_c20 + 5.9639 x_w236_c21 + 5.9084 x_w236_c22 + 6.8600 x_w236_c23 + 5.5568 x_w236_c24 + 1.2827 x_w237_c0 + 7.8723 x_w237_c1 + 6.0809 x_w237_c2 + 5.3568 x_w237_c3 + 5.2089 x_w237_c4 + 3.3887 x_w237_c5 + 3.8139 x_w237_c6 + 4.8363 x_w237_c7 + 6.8020 x_w237_c8 + 7.2587 x_w237_c9 + 4.7586 x_w237_c10 + 5.7932 x_w237_c11 + 3.1876 x_w237_c12 + 3.4696 x_w237_c13 + 4.0249 x_w237_c14 + 6.8254 x_w237_c15 + 6.0902 x_w237_c16 + 5.9250 x_w237_c17 + 5.1456 x_w237_c18 + 5.9845 x_w237_c19 + 7.9180 x_w237_c20 + 4.4356 x_w237_c21 + 6.2779 x_w237_c22 + 6.3097 x_w237_c23 + 6.4435 x_w237_c24 + 1.1462 x_w238_c0 + 5.6736 x_w238_c1 + 3.6233 x_w238_c2 + 6.1766 x_w238_c3 + 4.3659 x_w238_c4 + 5.6363 x_w238_c5 + 7.8833 x_w238_c6 + 5.5168 x_w238_c7 + 3.6505 x_w238_c8 + 5.3773 x_w238_c9 + 6.5522 x_w238_c10 + 5.3797 x_w238_c11 + 3.8186 x_w238_c12 + 7.1586 x_w238_c13 + 5.2231 x_w238_c14 + 3.8202 x_w238_c15 + 3.1250 x_w238_c16 + 5.1566 x_w238_c17 + 3.5371 x_w238_c18 + 4.1767 x_w238_c19 + 4.8391 x_w238_c20 + 6.4002 x_w238_c21 + 7.0998 x_w238_c22 + 3.1760 x_w238_c23 + 7.3372 x_w238_c24 + 1.0327 x_w239_c0 + 7.8895 x_w239_c1 + 6.4395 x_w239_c2 + 5.5346 x_w239_c3 + 6.4144 x_w239_c4 + 4.6345 x_w239_c5 + 3.1203 x_w239_c6 + 5.1618 x_w239_c7 + 6.6503 x_w239_c8 + 5.7723 x_w239_c9 + 7.8915 x_w239_c10 + 6.7436 x_w239_c11 + 3.3210 x_w239_c12 + 5.7083 x_w239_c13 + 4.8281 x_w239_c14 + 6.4687 x_w239_c15 + 7.7692 x_w239_c16 + 4.4191 x_w239_c17 + 7.2865 x_w239_c18 + 3.4943 x_w239_c19 + 4.3835 x_w239_c20 + 3.7884 x_w239_c21 + 5.3021 x_w239_c22 + 4.7543 x_w239_c23 + 5.7398 x_w239_c24 + 1.3089 x_w240_c0 + 5.6465 x_w240_c1 + 3.6281 x_w240_c2 + 6.5523 x_w240_c3 + 7.0374 x_w240_c4 + 5.3736 x_w240_c5 + 7.1750 x_w240_c6 + 4.7838 x_w240_c7 + 3.0886 x_w240_c8 + 7.5102 x_w240_c9 + 6.5473 x_w240_c10 + 5.4209 x_w240_c11 + 4.1965 x_w240_c12 + 4.5037 x_w240_c13 + 6.7174 x_w240_c14 + 5.8052 x_w240_c15 + 4.5285 x_w240_c16 + 3.7791 x_w240_c17 + 3.8459 x_w240_c18 + 7.8735 x_w240_c19 + 5.3377 x_w240_c20 + 3.2046 x_w240_c21 + 5.9805 x_w240_c22 + 3.3624 x_w240_c23 + 3.6311 x_w240_c24 + 1.3469 x_w241_c0 + 7.3406 x_w241_c1 + 4.8259 x_w241_c2 + 4.9622 x_w241_c3 + 5.6265 x_w241_c4 + 3.1864 x_w241_c5 + 3.8994 x_w241_c6 + 7.0650 x_w241_c7 + 7.9904 x_w241_c8 + 3.8881 x_w241_c9 + 6.7938 x_w241_c10 + 5.8956 x_w241_c11 + 4.2258 x_w241_c12 + 3.2090 x_w241_c13 + 7.5030 x_w241_c14 + 6.1383 x_w241_c15 + 7.4766 x_w241_c16 + 4.6575 x_w241_c17 + 4.9628 x_w241_c18 + 6.9391 x_w241_c19 + 6.8226 x_w241_c20 + 5.3634 x_w241_c21 + 5.1720 x_w241_c22 + 4.4994 x_w241_c23 + 7.7719 x_w241_c24 + 0.7536 x_w242_c0 + 4.4591 x_w242_c1 + 4.0282 x_w242_c2 + 5.7933 x_w242_c3 + 6.3753 x_w242_c4 + 5.4031 x_w242_c5 + 4.9542 x_w242_c6 + 7.1783 x_w242_c7 + 4.6082 x_w242_c8 + 7.1246 x_w242_c9 + 7.8996 x_w242_c10 + 3.3102 x_w242_c11 + 3.5911 x_w242_c12 + 3.1889 x_w242_c13 + 7.8181 x_w242_c14 + 3.1138 x_w242_c15 + 4.5531 x_w242_c16 + 5.6049 x_w242_c17 + 4.0959 x_w242_c18 + 4.0330 x_w242_c19 + 3.2822 x_w242_c20 + 6.0947 x_w242_c21 + 3.2365 x_w242_c22 + 7.2283 x_w242_c23 + 5.1985 x_w242_c24 + 0.6108 x_w243_c0 + 4.2247 x_w243_c1 + 7.5320 x_w243_c2 + 3.0506 x_w243_c3 + 6.6514 x_w243_c4 + 4.1824 x_w243_c5 + 6.0349 x_w243_c6 + 6.4169 x_w243_c7 + 4.8805 x_w243_c8 + 4.0720 x_w243_c9 + 4.8931 x_w243_c10 + 5.8222 x_w243_c11 + 4.3117 x_w243_c12 + 4.1823 x_w243_c13 + 5.6110 x_w243_c14 + 7.6686 x_w243_c15 + 5.1385 x_w243_c16 + 5.5391 x_w243_c17 + 6.0944 x_w243_c18 + 3.0224 x_w243_c19 + 5.6125 x_w243_c20 + 3.5109 x_w243_c21 + 5.5636 x_w243_c22 + 7.5961 x_w243_c23 + 5.8150 x_w243_c24 + 1.8264 x_w244_c0 + 6.7194 x_w244_c1 + 5.8213 x_w244_c2 + 4.9451 x_w244_c3 + 7.1053 x_w244_c4 + 3.1524 x_w244_c5 + 6.9203 x_w244_c6 + 3.1912 x_w244_c7 + 4.2843 x_w244_c8 + 6.4991 x_w244_c9 + 6.1315 x_w244_c10 + 3.0221 x_w244_c11 + 5.7367 x_w244_c12 + 5.7220 x_w244_c13 + 5.0922 x_w244_c14 + 7.4259 x_w244_c15 + 7.9029 x_w244_c16 + 5.2683 x_w244_c17 + 7.4235 x_w244_c18 + 4.5464 x_w244_c19 + 6.5308 x_w244_c20 + 5.1813 x_w244_c21 + 6.4969 x_w244_c22 + 7.2847 x_w244_c23 + 7.9661 x_w244_c24 + 1.0446 x_w245_c0 + 3.8530 x_w245_c1 + 7.3095 x_w245_c2 + 3.5839 x_w245_c3 + 4.4968 x_w245_c4 + 7.4983 x_w245_c5 + 5.6506 x_w245_c6 + 6.5261 x_w245_c7 + 6.7325 x_w245_c8 + 3.3121 x_w245_c9 + 7.3198 x_w245_c10 + 6.8442 x_w245_c11 + 6.3708 x_w245_c12 + 3.8206 x_w245_c13 + 5.9139 x_w245_c14 + 6.1110 x_w245_c15 + 6.6485 x_w245_c16 + 6.5292 x_w245_c17 + 5.6111 x_w245_c18 + 7.7564 x_w245_c19 + 6.4379 x_w245_c20 + 6.4573 x_w245_c21 + 5.1315 x_w245_c22 + 6.3396 x_w245_c23 + 7.8501 x_w245_c24 + 1.7179 x_w246_c0 + 7.8336 x_w246_c1 + 3.7390 x_w246_c2 + 3.5177 x_w246_c3 + 6.7459 x_w246_c4 + 5.7738 x_w246_c5 + 5.8796 x_w246_c6 + 4.8278 x_w246_c7 + 3.5873 x_w246_c8 + 3.9278 x_w246_c9 + 3.3163 x_w246_c10 + 4.1927 x_w246_c11 + 6.3313 x_w246_c12 + 3.9715 x_w246_c13 + 3.8041 x_w246_c14 + 5.7103 x_w246_c15 + 5.2022 x_w246_c16 + 5.7702 x_w246_c17 + 7.4645 x_w246_c18 + 7.9622 x_w246_c19 + 5.2037 x_w246_c20 + 5.1305 x_w246_c21 + 5.5357 x_w246_c22 + 5.4534 x_w246_c23 + 5.9893 x_w246_c24 + 0.9264 x_w247_c0 + 5.9540 x_w247_c1 + 6.8386 x_w247_c2 + 3.7252 x_w247_c3 + 4.1029 x_w247_c4 + 3.3075 x_w247_c5 + 7.6250 x_w247_c6 + 3.4097 x_w247_c7 + 5.3893 x_w247_c8 + 5.9347 x_w247_c9 + 4.4750 x_w247_c10 + 5.4219 x_w247_c11 + 6.6026 x_w247_c12 + 3.4220 x_w247_c13 + 3.6785 x_w247_c14 + 6.2173 x_w247_c15 + 3.2568 x_w247_c16 + 4.5580 x_w247_c17 + 3.6525 x_w247_c18 + 7.8381 x_w247_c19 + 6.7136 x_w247_c20 + 7.8884 x_w247_c21 + 3.9247 x_w247_c22 + 5.3864 x_w247_c23 + 5.3097 x_w247_c24 + 0.5587 x_w248_c0 + 6.5676 x_w248_c1 + 6.9519 x_w248_c2 + 5.7798 x_w248_c3 + 5.7569 x_w248_c4 + 5.2631 x_w248_c5 + 6.4699 x_w248_c6 + 6.0616 x_w248_c7 + 4.1885 x_w248_c8 + 5.7084 x_w248_c9 + 5.7142 x_w248_c10 + 3.6379 x_w248_c11 + 6.4018 x_w248_c12 + 5.6454 x_w248_c13 + 3.0027 x_w248_c14 + 6.0553 x_w248_c15 + 4.0901 x_w248_c16 + 3.0050 x_w248_c17 + 4.8624 x_w248_c18 + 6.4133 x_w248_c19 + 4.8574 x_w248_c20 + 7.0835 x_w248_c21 + 6.8093 x_w248_c22 + 6.3200 x_w248_c23 + 3.3262 x_w248_c24 + 1.2825 x_w249_c0 + 5.3983 x_w249_c1 + 4.8118 x_w249_c2 + 6.0429 x_w249_c3 + 7.4881 x_w249_c4 + 3.5966 x_w249_c5 + 3.7361 x_w249_c6 + 4.8017 x_w249_c7 + 7.6027 x_w249_c8 + 6.7040 x_w249_c9 + 3.0095 x_w249_c10 + 5.3074 x_w249_c11 + 4.3887 x_w249_c12 + 7.8744 x_w249_c13 + 7.4856 x_w249_c14 + 5.5540 x_w249_c15 + 6.3529 x_w249_c16 + 7.3389 x_w249_c17 + 4.5310 x_w249_c18 + 5.3624 x_w249_c19 + 4.6192 x_w249_c20 + 3.6292 x_w249_c21 + 6.8195 x_w249_c22 + 7.4074 x_w249_c23 + 3.0790 x_w249_c24 - TotalCost = 0
  sum_lat: y_w0_c0 + y_w0_c1 + y_w0_c2 + y_w0_c3 + y_w0_c4 + y_w0_c5 + y_w0_c6 + y_w0_c7 + y_w0_c8 + y_w0_c9 + y_w0_c10 + y_w0_c11 + y_w0_c12 + y_w0_c13 + y_w0_c14 + y_w0_c15 + y_w0_c16 + y_w0_c17 + y_w0_c18 + y_w0_c19 + y_w0_c20 + y_w0_c21 + y_w0_c22 + y_w0_c23 + y_w0_c24 + y_w1_c0 + y_w1_c1 + y_w1_c2 + y_w1_c3 + y_w1_c4 + y_w1_c5 + y_w1_c6 + y_w1_c7 + y_w1_c8 + y_w1_c9 + y_w1_c10 + y_w1_c11 + y_w1_c12 + y_w1_c13 + y_w1_c14 + y_w1_c15 + y_w1_c16 + y_w1_c17 + y_w1_c18 + y_w1_c19 + y_w1_c20 + y_w1_c21 + y_w1_c22 + y_w1_c23 + y_w1_c24 + y_w2_c0 + y_w2_c1 + y_w2_c2 + y_w2_c3 + y_w2_c4 + y_w2_c5 + y_w2_c6 + y_w2_c7 + y_w2_c8 + y_w2_c9 + y_w2_c10 + y_w2_c11 + y_w2_c12 + y_w2_c13 + y_w2_c14 + y_w2_c15 + y_w2_c16 + y_w2_c17 + y_w2_c18 + y_w2_c19 + y_w2_c20 + y_w2_c21 + y_w2_c22 + y_w2_c23 + y_w2_c24 + y_w3_c0 + y_w3_c1 + y_w3_c2 + y_w3_c3 + y_w3_c4 + y_w3_c5 + y_w3_c6 + y_w3_c7 + y_w3_c8 + y_w3_c9 + y_w3_c10 + y_w3_c11 + y_w3_c12 + y_w3_c13 + y_w3_c14 + y_w3_c15 + y_w3_c16 + y_w3_c17 + y_w3_c18 + y_w3_c19 + y_w3_c20 + y_w3_c21 + y_w3_c22 + y_w3_c23 + y_w3_c24 + y_w4_c0 + y_w4_c1 + y_w4_c2 + y_w4_c3 + y_w4_c4 + y_w4_c5 + y_w4_c6 + y_w4_c7 + y_w4_c8 + y_w4_c9 + y_w4_c10 + y_w4_c11 + y_w4_c12 + y_w4_c13 + y_w4_c14 + y_w4_c15 + y_w4_c16 + y_w4_c17 + y_w4_c18 + y_w4_c19 + y_w4_c20 + y_w4_c21 + y_w4_c22 + y_w4_c23 + y_w4_c24 + y_w5_c0 + y_w5_c1 + y_w5_c2 + y_w5_c3 + y_w5_c4 + y_w5_c5 + y_w5_c6 + y_w5_c7 + y_w5_c8 + y_w5_c9 + y_w5_c10 + y_w5_c11 + y_w5_c12 + y_w5_c13 + y_w5_c14 + y_w5_c15 + y_w5_c16 + y_w5_c17 + y_w5_c18 + y_w5_c19 + y_w5_c20 + y_w5_c21 + y_w5_c22 + y_w5_c23 + y_w5_c24 + y_w6_c0 + y_w6_c1 + y_w6_c2 + y_w6_c3 + y_w6_c4 + y_w6_c5 + y_w6_c6 + y_w6_c7 + y_w6_c8 + y_w6_c9 + y_w6_c10 + y_w6_c11 + y_w6_c12 + y_w6_c13 + y_w6_c14 + y_w6_c15 + y_w6_c16 + y_w6_c17 + y_w6_c18 + y_w6_c19 + y_w6_c20 + y_w6_c21 + y_w6_c22 + y_w6_c23 + y_w6_c24 + y_w7_c0 + y_w7_c1 + y_w7_c2 + y_w7_c3 + y_w7_c4 + y_w7_c5 + y_w7_c6 + y_w7_c7 + y_w7_c8 + y_w7_c9 + y_w7_c10 + y_w7_c11 + y_w7_c12 + y_w7_c13 + y_w7_c14 + y_w7_c15 + y_w7_c16 + y_w7_c17 + y_w7_c18 + y_w7_c19 + y_w7_c20 + y_w7_c21 + y_w7_c22 + y_w7_c23 + y_w7_c24 + y_w8_c0 + y_w8_c1 + y_w8_c2 + y_w8_c3 + y_w8_c4 + y_w8_c5 + y_w8_c6 + y_w8_c7 + y_w8_c8 + y_w8_c9 + y_w8_c10 + y_w8_c11 + y_w8_c12 + y_w8_c13 + y_w8_c14 + y_w8_c15 + y_w8_c16 + y_w8_c17 + y_w8_c18 + y_w8_c19 + y_w8_c20 + y_w8_c21 + y_w8_c22 + y_w8_c23 + y_w8_c24 + y_w9_c0 + y_w9_c1 + y_w9_c2 + y_w9_c3 + y_w9_c4 + y_w9_c5 + y_w9_c6 + y_w9_c7 + y_w9_c8 + y_w9_c9 + y_w9_c10 + y_w9_c11 + y_w9_c12 + y_w9_c13 + y_w9_c14 + y_w9_c15 + y_w9_c16 + y_w9_c17 + y_w9_c18 + y_w9_c19 + y_w9_c20 + y_w9_c21 + y_w9_c22 + y_w9_c23 + y_w9_c24 + y_w10_c0 + y_w10_c1 + y_w10_c2 + y_w10_c3 + y_w10_c4 + y_w10_c5 + y_w10_c6 + y_w10_c7 + y_w10_c8 + y_w10_c9 + y_w10_c10 + y_w10_c11 + y_w10_c12 + y_w10_c13 + y_w10_c14 + y_w10_c15 + y_w10_c16 + y_w10_c17 + y_w10_c18 + y_w10_c19 + y_w10_c20 + y_w10_c21 + y_w10_c22 + y_w10_c23 + y_w10_c24 + y_w11_c0 + y_w11_c1 + y_w11_c2 + y_w11_c3 + y_w11_c4 + y_w11_c5 + y_w11_c6 + y_w11_c7 + y_w11_c8 + y_w11_c9 + y_w11_c10 + y_w11_c11 + y_w11_c12 + y_w11_c13 + y_w11_c14 + y_w11_c15 + y_w11_c16 + y_w11_c17 + y_w11_c18 + y_w11_c19 + y_w11_c20 + y_w11_c21 + y_w11_c22 + y_w11_c23 + y_w11_c24 + y_w12_c0 + y_w12_c1 + y_w12_c2 + y_w12_c3 + y_w12_c4 + y_w12_c5 + y_w12_c6 + y_w12_c7 + y_w12_c8 + y_w12_c9 + y_w12_c10 + y_w12_c11 + y_w12_c12 + y_w12_c13 + y_w12_c14 + y_w12_c15 + y_w12_c16 + y_w12_c17 + y_w12_c18 + y_w12_c19 + y_w12_c20 + y_w12_c21 + y_w12_c22 + y_w12_c23 + y_w12_c24 + y_w13_c0 + y_w13_c1 + y_w13_c2 + y_w13_c3 + y_w13_c4 + y_w13_c5 + y_w13_c6 + y_w13_c7 + y_w13_c8 + y_w13_c9 + y_w13_c10 + y_w13_c11 + y_w13_c12 + y_w13_c13 + y_w13_c14 + y_w13_c15 + y_w13_c16 + y_w13_c17 + y_w13_c18 + y_w13_c19 + y_w13_c20 + y_w13_c21 + y_w13_c22 + y_w13_c23 + y_w13_c24 + y_w14_c0 + y_w14_c1 + y_w14_c2 + y_w14_c3 + y_w14_c4 + y_w14_c5 + y_w14_c6 + y_w14_c7 + y_w14_c8 + y_w14_c9 + y_w14_c10 + y_w14_c11 + y_w14_c12 + y_w14_c13 + y_w14_c14 + y_w14_c15 + y_w14_c16 + y_w14_c17 + y_w14_c18 + y_w14_c19 + y_w14_c20 + y_w14_c21 + y_w14_c22 + y_w14_c23 + y_w14_c24 + y_w15_c0 + y_w15_c1 + y_w15_c2 + y_w15_c3 + y_w15_c4 + y_w15_c5 + y_w15_c6 + y_w15_c7 + y_w15_c8 + y_w15_c9 + y_w15_c10 + y_w15_c11 + y_w15_c12 + y_w15_c13 + y_w15_c14 + y_w15_c15 + y_w15_c16 + y_w15_c17 + y_w15_c18 + y_w15_c19 + y_w15_c20 + y_w15_c21 + y_w15_c22 + y_w15_c23 + y_w15_c24 + y_w16_c0 + y_w16_c1 + y_w16_c2 + y_w16_c3 + y_w16_c4 + y_w16_c5 + y_w16_c6 + y_w16_c7 + y_w16_c8 + y_w16_c9 + y_w16_c10 + y_w16_c11 + y_w16_c12 + y_w16_c13 + y_w16_c14 + y_w16_c15 + y_w16_c16 + y_w16_c17 + y_w16_c18 + y_w16_c19 + y_w16_c20 + y_w16_c21 + y_w16_c22 + y_w16_c23 + y_w16_c24 + y_w17_c0 + y_w17_c1 + y_w17_c2 + y_w17_c3 + y_w17_c4 + y_w17_c5 + y_w17_c6 + y_w17_c7 + y_w17_c8 + y_w17_c9 + y_w17_c10 + y_w17_c11 + y_w17_c12 + y_w17_c13 + y_w17_c14 + y_w17_c15 + y_w17_c16 + y_w17_c17 + y_w17_c18 + y_w17_c19 + y_w17_c20 + y_w17_c21 + y_w17_c22 + y_w17_c23 + y_w17_c24 + y_w18_c0 + y_w18_c1 + y_w18_c2 + y_w18_c3 + y_w18_c4 + y_w18_c5 + y_w18_c6 + y_w18_c7 + y_w18_c8 + y_w18_c9 + y_w18_c10 + y_w18_c11 + y_w18_c12 + y_w18_c13 + y_w18_c14 + y_w18_c15 + y_w18_c16 + y_w18_c17 + y_w18_c18 + y_w18_c19 + y_w18_c20 + y_w18_c21 + y_w18_c22 + y_w18_c23 + y_w18_c24 + y_w19_c0 + y_w19_c1 + y_w19_c2 + y_w19_c3 + y_w19_c4 + y_w19_c5 + y_w19_c6 + y_w19_c7 + y_w19_c8 + y_w19_c9 + y_w19_c10 + y_w19_c11 + y_w19_c12 + y_w19_c13 + y_w19_c14 + y_w19_c15 + y_w19_c16 + y_w19_c17 + y_w19_c18 + y_w19_c19 + y_w19_c20 + y_w19_c21 + y_w19_c22 + y_w19_c23 + y_w19_c24 + y_w20_c0 + y_w20_c1 + y_w20_c2 + y_w20_c3 + y_w20_c4 + y_w20_c5 + y_w20_c6 + y_w20_c7 + y_w20_c8 + y_w20_c9 + y_w20_c10 + y_w20_c11 + y_w20_c12 + y_w20_c13 + y_w20_c14 + y_w20_c15 + y_w20_c16 + y_w20_c17 + y_w20_c18 + y_w20_c19 + y_w20_c20 + y_w20_c21 + y_w20_c22 + y_w20_c23 + y_w20_c24 + y_w21_c0 + y_w21_c1 + y_w21_c2 + y_w21_c3 + y_w21_c4 + y_w21_c5 + y_w21_c6 + y_w21_c7 + y_w21_c8 + y_w21_c9 + y_w21_c10 + y_w21_c11 + y_w21_c12 + y_w21_c13 + y_w21_c14 + y_w21_c15 + y_w21_c16 + y_w21_c17 + y_w21_c18 + y_w21_c19 + y_w21_c20 + y_w21_c21 + y_w21_c22 + y_w21_c23 + y_w21_c24 + y_w22_c0 + y_w22_c1 + y_w22_c2 + y_w22_c3 + y_w22_c4 + y_w22_c5 + y_w22_c6 + y_w22_c7 + y_w22_c8 + y_w22_c9 + y_w22_c10 + y_w22_c11 + y_w22_c12 + y_w22_c13 + y_w22_c14 + y_w22_c15 + y_w22_c16 + y_w22_c17 + y_w22_c18 + y_w22_c19 + y_w22_c20 + y_w22_c21 + y_w22_c22 + y_w22_c23 + y_w22_c24 + y_w23_c0 + y_w23_c1 + y_w23_c2 + y_w23_c3 + y_w23_c4 + y_w23_c5 + y_w23_c6 + y_w23_c7 + y_w23_c8 + y_w23_c9 + y_w23_c10 + y_w23_c11 + y_w23_c12 + y_w23_c13 + y_w23_c14 + y_w23_c15 + y_w23_c16 + y_w23_c17 + y_w23_c18 + y_w23_c19 + y_w23_c20 + y_w23_c21 + y_w23_c22 + y_w23_c23 + y_w23_c24 + y_w24_c0 + y_w24_c1 + y_w24_c2 + y_w24_c3 + y_w24_c4 + y_w24_c5 + y_w24_c6 + y_w24_c7 + y_w24_c8 + y_w24_c9 + y_w24_c10 + y_w24_c11 + y_w24_c12 + y_w24_c13 + y_w24_c14 + y_w24_c15 + y_w24_c16 + y_w24_c17 + y_w24_c18 + y_w24_c19 + y_w24_c20 + y_w24_c21 + y_w24_c22 + y_w24_c23 + y_w24_c24 + y_w25_c0 + y_w25_c1 + y_w25_c2 + y_w25_c3 + y_w25_c4 + y_w25_c5 + y_w25_c6 + y_w25_c7 + y_w25_c8 + y_w25_c9 + y_w25_c10 + y_w25_c11 + y_w25_c12 + y_w25_c13 + y_w25_c14 + y_w25_c15 + y_w25_c16 + y_w25_c17 + y_w25_c18 + y_w25_c19 + y_w25_c20 + y_w25_c21 + y_w25_c22 + y_w25_c23 + y_w25_c24 + y_w26_c0 + y_w26_c1 + y_w26_c2 + y_w26_c3 + y_w26_c4 + y_w26_c5 + y_w26_c6 + y_w26_c7 + y_w26_c8 + y_w26_c9 + y_w26_c10 + y_w26_c11 + y_w26_c12 + y_w26_c13 + y_w26_c14 + y_w26_c15 + y_w26_c16 + y_w26_c17 + y_w26_c18 + y_w26_c19 + y_w26_c20 + y_w26_c21 + y_w26_c22 + y_w26_c23 + y_w26_c24 + y_w27_c0 + y_w27_c1 + y_w27_c2 + y_w27_c3 + y_w27_c4 + y_w27_c5 + y_w27_c6 + y_w27_c7 + y_w27_c8 + y_w27_c9 + y_w27_c10 + y_w27_c11 + y_w27_c12 + y_w27_c13 + y_w27_c14 + y_w27_c15 + y_w27_c16 + y_w27_c17 + y_w27_c18 + y_w27_c19 + y_w27_c20 + y_w27_c21 + y_w27_c22 + y_w27_c23 + y_w27_c24 + y_w28_c0 + y_w28_c1 + y_w28_c2 + y_w28_c3 + y_w28_c4 + y_w28_c5 + y_w28_c6 + y_w28_c7 + y_w28_c8 + y_w28_c9 + y_w28_c10 + y_w28_c11 + y_w28_c12 + y_w28_c13 + y_w28_c14 + y_w28_c15 + y_w28_c16 + y_w28_c17 + y_w28_c18 + y_w28_c19 + y_w28_c20 + y_w28_c21 + y_w28_c22 + y_w28_c23 + y_w28_c24 + y_w29_c0 + y_w29_c1 + y_w29_c2 + y_w29_c3 + y_w29_c4 + y_w29_c5 + y_w29_c6 + y_w29_c7 + y_w29_c8 + y_w29_c9 + y_w29_c10 + y_w29_c11 + y_w29_c12 + y_w29_c13 + y_w29_c14 + y_w29_c15 + y_w29_c16 + y_w29_c17 + y_w29_c18 + y_w29_c19 + y_w29_c20 + y_w29_c21 + y_w29_c22 + y_w29_c23 + y_w29_c24 + y_w30_c0 + y_w30_c1 + y_w30_c2 + y_w30_c3 + y_w30_c4 + y_w30_c5 + y_w30_c6 + y_w30_c7 + y_w30_c8 + y_w30_c9 + y_w30_c10 + y_w30_c11 + y_w30_c12 + y_w30_c13 + y_w30_c14 + y_w30_c15 + y_w30_c16 + y_w30_c17 + y_w30_c18 + y_w30_c19 + y_w30_c20 + y_w30_c21 + y_w30_c22 + y_w30_c23 + y_w30_c24 + y_w31_c0 + y_w31_c1 + y_w31_c2 + y_w31_c3 + y_w31_c4 + y_w31_c5 + y_w31_c6 + y_w31_c7 + y_w31_c8 + y_w31_c9 + y_w31_c10 + y_w31_c11 + y_w31_c12 + y_w31_c13 + y_w31_c14 + y_w31_c15 + y_w31_c16 + y_w31_c17 + y_w31_c18 + y_w31_c19 + y_w31_c20 + y_w31_c21 + y_w31_c22 + y_w31_c23 + y_w31_c24 + y_w32_c0 + y_w32_c1 + y_w32_c2 + y_w32_c3 + y_w32_c4 + y_w32_c5 + y_w32_c6 + y_w32_c7 + y_w32_c8 + y_w32_c9 + y_w32_c10 + y_w32_c11 + y_w32_c12 + y_w32_c13 + y_w32_c14 + y_w32_c15 + y_w32_c16 + y_w32_c17 + y_w32_c18 + y_w32_c19 + y_w32_c20 + y_w32_c21 + y_w32_c22 + y_w32_c23 + y_w32_c24 + y_w33_c0 + y_w33_c1 + y_w33_c2 + y_w33_c3 + y_w33_c4 + y_w33_c5 + y_w33_c6 + y_w33_c7 + y_w33_c8 + y_w33_c9 + y_w33_c10 + y_w33_c11 + y_w33_c12 + y_w33_c13 + y_w33_c14 + y_w33_c15 + y_w33_c16 + y_w33_c17 + y_w33_c18 + y_w33_c19 + y_w33_c20 + y_w33_c21 + y_w33_c22 + y_w33_c23 + y_w33_c24 + y_w34_c0 + y_w34_c1 + y_w34_c2 + y_w34_c3 + y_w34_c4 + y_w34_c5 + y_w34_c6 + y_w34_c7 + y_w34_c8 + y_w34_c9 + y_w34_c10 + y_w34_c11 + y_w34_c12 + y_w34_c13 + y_w34_c14 + y_w34_c15 + y_w34_c16 + y_w34_c17 + y_w34_c18 + y_w34_c19 + y_w34_c20 + y_w34_c21 + y_w34_c22 + y_w34_c23 + y_w34_c24 + y_w35_c0 + y_w35_c1 + y_w35_c2 + y_w35_c3 + y_w35_c4 + y_w35_c5 + y_w35_c6 + y_w35_c7 + y_w35_c8 + y_w35_c9 + y_w35_c10 + y_w35_c11 + y_w35_c12 + y_w35_c13 + y_w35_c14 + y_w35_c15 + y_w35_c16 + y_w35_c17 + y_w35_c18 + y_w35_c19 + y_w35_c20 + y_w35_c21 + y_w35_c22 + y_w35_c23 + y_w35_c24 + y_w36_c0 + y_w36_c1 + y_w36_c2 + y_w36_c3 + y_w36_c4 + y_w36_c5 + y_w36_c6 + y_w36_c7 + y_w36_c8 + y_w36_c9 + y_w36_c10 + y_w36_c11 + y_w36_c12 + y_w36_c13 + y_w36_c14 + y_w36_c15 + y_w36_c16 + y_w36_c17 + y_w36_c18 + y_w36_c19 + y_w36_c20 + y_w36_c21 + y_w36_c22 + y_w36_c23 + y_w36_c24 + y_w37_c0 + y_w37_c1 + y_w37_c2 + y_w37_c3 + y_w37_c4 + y_w37_c5 + y_w37_c6 + y_w37_c7 + y_w37_c8 + y_w37_c9 + y_w37_c10 + y_w37_c11 + y_w37_c12 + y_w37_c13 + y_w37_c14 + y_w37_c15 + y_w37_c16 + y_w37_c17 + y_w37_c18 + y_w37_c19 + y_w37_c20 + y_w37_c21 + y_w37_c22 + y_w37_c23 + y_w37_c24 + y_w38_c0 + y_w38_c1 + y_w38_c2 + y_w38_c3 + y_w38_c4 + y_w38_c5 + y_w38_c6 + y_w38_c7 + y_w38_c8 + y_w38_c9 + y_w38_c10 + y_w38_c11 + y_w38_c12 + y_w38_c13 + y_w38_c14 + y_w38_c15 + y_w38_c16 + y_w38_c17 + y_w38_c18 + y_w38_c19 + y_w38_c20 + y_w38_c21 + y_w38_c22 + y_w38_c23 + y_w38_c24 + y_w39_c0 + y_w39_c1 + y_w39_c2 + y_w39_c3 + y_w39_c4 + y_w39_c5 + y_w39_c6 + y_w39_c7 + y_w39_c8 + y_w39_c9 + y_w39_c10 + y_w39_c11 + y_w39_c12 + y_w39_c13 + y_w39_c14 + y_w39_c15 + y_w39_c16 + y_w39_c17 + y_w39_c18 + y_w39_c19 + y_w39_c20 + y_w39_c21 + y_w39_c22 + y_w39_c23 + y_w39_c24 + y_w40_c0 + y_w40_c1 + y_w40_c2 + y_w40_c3 + y_w40_c4 + y_w40_c5 + y_w40_c6 + y_w40_c7 + y_w40_c8 + y_w40_c9 + y_w40_c10 + y_w40_c11 + y_w40_c12 + y_w40_c13 + y_w40_c14 + y_w40_c15 + y_w40_c16 + y_w40_c17 + y_w40_c18 + y_w40_c19 + y_w40_c20 + y_w40_c21 + y_w40_c22 + y_w40_c23 + y_w40_c24 + y_w41_c0 + y_w41_c1 + y_w41_c2 + y_w41_c3 + y_w41_c4 + y_w41_c5 + y_w41_c6 + y_w41_c7 + y_w41_c8 + y_w41_c9 + y_w41_c10 + y_w41_c11 + y_w41_c12 + y_w41_c13 + y_w41_c14 + y_w41_c15 + y_w41_c16 + y_w41_c17 + y_w41_c18 + y_w41_c19 + y_w41_c20 + y_w41_c21 + y_w41_c22 + y_w41_c23 + y_w41_c24 + y_w42_c0 + y_w42_c1 + y_w42_c2 + y_w42_c3 + y_w42_c4 + y_w42_c5 + y_w42_c6 + y_w42_c7 + y_w42_c8 + y_w42_c9 + y_w42_c10 + y_w42_c11 + y_w42_c12 + y_w42_c13 + y_w42_c14 + y_w42_c15 + y_w42_c16 + y_w42_c17 + y_w42_c18 + y_w42_c19 + y_w42_c20 + y_w42_c21 + y_w42_c22 + y_w42_c23 + y_w42_c24 + y_w43_c0 + y_w43_c1 + y_w43_c2 + y_w43_c3 + y_w43_c4 + y_w43_c5 + y_w43_c6 + y_w43_c7 + y_w43_c8 + y_w43_c9 + y_w43_c10 + y_w43_c11 + y_w43_c12 + y_w43_c13 + y_w43_c14 + y_w43_c15 + y_w43_c16 + y_w43_c17 + y_w43_c18 + y_w43_c19 + y_w43_c20 + y_w43_c21 + y_w43_c22 + y_w43_c23 + y_w43_c24 + y_w44_c0 + y_w44_c1 + y_w44_c2 + y_w44_c3 + y_w44_c4 + y_w44_c5 + y_w44_c6 + y_w44_c7 + y_w44_c8 + y_w44_c9 + y_w44_c10 + y_w44_c11 + y_w44_c12 + y_w44_c13 + y_w44_c14 + y_w44_c15 + y_w44_c16 + y_w44_c17 + y_w44_c18 + y_w44_c19 + y_w44_c20 + y_w44_c21 + y_w44_c22 + y_w44_c23 + y_w44_c24 + y_w45_c0 + y_w45_c1 + y_w45_c2 + y_w45_c3 + y_w45_c4 + y_w45_c5 + y_w45_c6 + y_w45_c7 + y_w45_c8 + y_w45_c9 + y_w45_c10 + y_w45_c11 + y_w45_c12 + y_w45_c13 + y_w45_c14 + y_w45_c15 + y_w45_c16 + y_w45_c17 + y_w45_c18 + y_w45_c19 + y_w45_c20 + y_w45_c21 + y_w45_c22 + y_w45_c23 + y_w45_c24 + y_w46_c0 + y_w46_c1 + y_w46_c2 + y_w46_c3 + y_w46_c4 + y_w46_c5 + y_w46_c6 + y_w46_c7 + y_w46_c8 + y_w46_c9 + y_w46_c10 + y_w46_c11 + y_w46_c12 + y_w46_c13 + y_w46_c14 + y_w46_c15 + y_w46_c16 + y_w46_c17 + y_w46_c18 + y_w46_c19 + y_w46_c20 + y_w46_c21 + y_w46_c22 + y_w46_c23 + y_w46_c24 + y_w47_c0 + y_w47_c1 + y_w47_c2 + y_w47_c3 + y_w47_c4 + y_w47_c5 + y_w47_c6 + y_w47_c7 + y_w47_c8 + y_w47_c9 + y_w47_c10 + y_w47_c11 + y_w47_c12 + y_w47_c13 + y_w47_c14 + y_w47_c15 + y_w47_c16 + y_w47_c17 + y_w47_c18 + y_w47_c19 + y_w47_c20 + y_w47_c21 + y_w47_c22 + y_w47_c23 + y_w47_c24 + y_w48_c0 + y_w48_c1 + y_w48_c2 + y_w48_c3 + y_w48_c4 + y_w48_c5 + y_w48_c6 + y_w48_c7 + y_w48_c8 + y_w48_c9 + y_w48_c10 + y_w48_c11 + y_w48_c12 + y_w48_c13 + y_w48_c14 + y_w48_c15 + y_w48_c16 + y_w48_c17 + y_w48_c18 + y_w48_c19 + y_w48_c20 + y_w48_c21 + y_w48_c22 + y_w48_c23 + y_w48_c24 + y_w49_c0 + y_w49_c1 + y_w49_c2 + y_w49_c3 + y_w49_c4 + y_w49_c5 + y_w49_c6 + y_w49_c7 + y_w49_c8 + y_w49_c9 + y_w49_c10 + y_w49_c11 + y_w49_c12 + y_w49_c13 + y_w49_c14 + y_w49_c15 + y_w49_c16 + y_w49_c17 + y_w49_c18 + y_w49_c19 + y_w49_c20 + y_w49_c21 + y_w49_c22 + y_w49_c23 + y_w49_c24 + y_w50_c0 + y_w50_c1 + y_w50_c2 + y_w50_c3 + y_w50_c4 + y_w50_c5 + y_w50_c6 + y_w50_c7 + y_w50_c8 + y_w50_c9 + y_w50_c10 + y_w50_c11 + y_w50_c12 + y_w50_c13 + y_w50_c14 + y_w50_c15 + y_w50_c16 + y_w50_c17 + y_w50_c18 + y_w50_c19 + y_w50_c20 + y_w50_c21 + y_w50_c22 + y_w50_c23 + y_w50_c24 + y_w51_c0 + y_w51_c1 + y_w51_c2 + y_w51_c3 + y_w51_c4 + y_w51_c5 + y_w51_c6 + y_w51_c7 + y_w51_c8 + y_w51_c9 + y_w51_c10 + y_w51_c11 + y_w51_c12 + y_w51_c13 + y_w51_c14 + y_w51_c15 + y_w51_c16 + y_w51_c17 + y_w51_c18 + y_w51_c19 + y_w51_c20 + y_w51_c21 + y_w51_c22 + y_w51_c23 + y_w51_c24 + y_w52_c0 + y_w52_c1 + y_w52_c2 + y_w52_c3 + y_w52_c4 + y_w52_c5 + y_w52_c6 + y_w52_c7 + y_w52_c8 + y_w52_c9 + y_w52_c10 + y_w52_c11 + y_w52_c12 + y_w52_c13 + y_w52_c14 + y_w52_c15 + y_w52_c16 + y_w52_c17 + y_w52_c18 + y_w52_c19 + y_w52_c20 + y_w52_c21 + y_w52_c22 + y_w52_c23 + y_w52_c24 + y_w53_c0 + y_w53_c1 + y_w53_c2 + y_w53_c3 + y_w53_c4 + y_w53_c5 + y_w53_c6 + y_w53_c7 + y_w53_c8 + y_w53_c9 + y_w53_c10 + y_w53_c11 + y_w53_c12 + y_w53_c13 + y_w53_c14 + y_w53_c15 + y_w53_c16 + y_w53_c17 + y_w53_c18 + y_w53_c19 + y_w53_c20 + y_w53_c21 + y_w53_c22 + y_w53_c23 + y_w53_c24 + y_w54_c0 + y_w54_c1 + y_w54_c2 + y_w54_c3 + y_w54_c4 + y_w54_c5 + y_w54_c6 + y_w54_c7 + y_w54_c8 + y_w54_c9 + y_w54_c10 + y_w54_c11 + y_w54_c12 + y_w54_c13 + y_w54_c14 + y_w54_c15 + y_w54_c16 + y_w54_c17 + y_w54_c18 + y_w54_c19 + y_w54_c20 + y_w54_c21 + y_w54_c22 + y_w54_c23 + y_w54_c24 + y_w55_c0 + y_w55_c1 + y_w55_c2 + y_w55_c3 + y_w55_c4 + y_w55_c5 + y_w55_c6 + y_w55_c7 + y_w55_c8 + y_w55_c9 + y_w55_c10 + y_w55_c11 + y_w55_c12 + y_w55_c13 + y_w55_c14 + y_w55_c15 + y_w55_c16 + y_w55_c17 + y_w55_c18 + y_w55_c19 + y_w55_c20 + y_w55_c21 + y_w55_c22 + y_w55_c23 + y_w55_c24 + y_w56_c0 + y_w56_c1 + y_w56_c2 + y_w56_c3 + y_w56_c4 + y_w56_c5 + y_w56_c6 + y_w56_c7 + y_w56_c8 + y_w56_c9 + y_w56_c10 + y_w56_c11 + y_w56_c12 + y_w56_c13 + y_w56_c14 + y_w56_c15 + y_w56_c16 + y_w56_c17 + y_w56_c18 + y_w56_c19 + y_w56_c20 + y_w56_c21 + y_w56_c22 + y_w56_c23 + y_w56_c24 + y_w57_c0 + y_w57_c1 + y_w57_c2 + y_w57_c3 + y_w57_c4 + y_w57_c5 + y_w57_c6 + y_w57_c7 + y_w57_c8 + y_w57_c9 + y_w57_c10 + y_w57_c11 + y_w57_c12 + y_w57_c13 + y_w57_c14 + y_w57_c15 + y_w57_c16 + y_w57_c17 + y_w57_c18 + y_w57_c19 + y_w57_c20 + y_w57_c21 + y_w57_c22 + y_w57_c23 + y_w57_c24 + y_w58_c0 + y_w58_c1 + y_w58_c2 + y_w58_c3 + y_w58_c4 + y_w58_c5 + y_w58_c6 + y_w58_c7 + y_w58_c8 + y_w58_c9 + y_w58_c10 + y_w58_c11 + y_w58_c12 + y_w58_c13 + y_w58_c14 + y_w58_c15 + y_w58_c16 + y_w58_c17 + y_w58_c18 + y_w58_c19 + y_w58_c20 + y_w58_c21 + y_w58_c22 + y_w58_c23 + y_w58_c24 + y_w59_c0 + y_w59_c1 + y_w59_c2 + y_w59_c3 + y_w59_c4 + y_w59_c5 + y_w59_c6 + y_w59_c7 + y_w59_c8 + y_w59_c9 + y_w59_c10 + y_w59_c11 + y_w59_c12 + y_w59_c13 + y_w59_c14 + y_w59_c15 + y_w59_c16 + y_w59_c17 + y_w59_c18 + y_w59_c19 + y_w59_c20 + y_w59_c21 + y_w59_c22 + y_w59_c23 + y_w59_c24 + y_w60_c0 + y_w60_c1 + y_w60_c2 + y_w60_c3 + y_w60_c4 + y_w60_c5 + y_w60_c6 + y_w60_c7 + y_w60_c8 + y_w60_c9 + y_w60_c10 + y_w60_c11 + y_w60_c12 + y_w60_c13 + y_w60_c14 + y_w60_c15 + y_w60_c16 + y_w60_c17 + y_w60_c18 + y_w60_c19 + y_w60_c20 + y_w60_c21 + y_w60_c22 + y_w60_c23 + y_w60_c24 + y_w61_c0 + y_w61_c1 + y_w61_c2 + y_w61_c3 + y_w61_c4 + y_w61_c5 + y_w61_c6 + y_w61_c7 + y_w61_c8 + y_w61_c9 + y_w61_c10 + y_w61_c11 + y_w61_c12 + y_w61_c13 + y_w61_c14 + y_w61_c15 + y_w61_c16 + y_w61_c17 + y_w61_c18 + y_w61_c19 + y_w61_c20 + y_w61_c21 + y_w61_c22 + y_w61_c23 + y_w61_c24 + y_w62_c0 + y_w62_c1 + y_w62_c2 + y_w62_c3 + y_w62_c4 + y_w62_c5 + y_w62_c6 + y_w62_c7 + y_w62_c8 + y_w62_c9 + y_w62_c10 + y_w62_c11 + y_w62_c12 + y_w62_c13 + y_w62_c14 + y_w62_c15 + y_w62_c16 + y_w62_c17 + y_w62_c18 + y_w62_c19 + y_w62_c20 + y_w62_c21 + y_w62_c22 + y_w62_c23 + y_w62_c24 + y_w63_c0 + y_w63_c1 + y_w63_c2 + y_w63_c3 + y_w63_c4 + y_w63_c5 + y_w63_c6 + y_w63_c7 + y_w63_c8 + y_w63_c9 + y_w63_c10 + y_w63_c11 + y_w63_c12 + y_w63_c13 + y_w63_c14 + y_w63_c15 + y_w63_c16 + y_w63_c17 + y_w63_c18 + y_w63_c19 + y_w63_c20 + y_w63_c21 + y_w63_c22 + y_w63_c23 + y_w63_c24 + y_w64_c0 + y_w64_c1 + y_w64_c2 + y_w64_c3 + y_w64_c4 + y_w64_c5 + y_w64_c6 + y_w64_c7 + y_w64_c8 + y_w64_c9 + y_w64_c10 + y_w64_c11 + y_w64_c12 + y_w64_c13 + y_w64_c14 + y_w64_c15 + y_w64_c16 + y_w64_c17 + y_w64_c18 + y_w64_c19 + y_w64_c20 + y_w64_c21 + y_w64_c22 + y_w64_c23 + y_w64_c24 + y_w65_c0 + y_w65_c1 + y_w65_c2 + y_w65_c3 + y_w65_c4 + y_w65_c5 + y_w65_c6 + y_w65_c7 + y_w65_c8 + y_w65_c9 + y_w65_c10 + y_w65_c11 + y_w65_c12 + y_w65_c13 + y_w65_c14 + y_w65_c15 + y_w65_c16 + y_w65_c17 + y_w65_c18 + y_w65_c19 + y_w65_c20 + y_w65_c21 + y_w65_c22 + y_w65_c23 + y_w65_c24 + y_w66_c0 + y_w66_c1 + y_w66_c2 + y_w66_c3 + y_w66_c4 + y_w66_c5 + y_w66_c6 + y_w66_c7 + y_w66_c8 + y_w66_c9 + y_w66_c10 + y_w66_c11 + y_w66_c12 + y_w66_c13 + y_w66_c14 + y_w66_c15 + y_w66_c16 + y_w66_c17 + y_w66_c18 + y_w66_c19 + y_w66_c20 + y_w66_c21 + y_w66_c22 + y_w66_c23 + y_w66_c24 + y_w67_c0 + y_w67_c1 + y_w67_c2 + y_w67_c3 + y_w67_c4 + y_w67_c5 + y_w67_c6 + y_w67_c7 + y_w67_c8 + y_w67_c9 + y_w67_c10 + y_w67_c11 + y_w67_c12 + y_w67_c13 + y_w67_c14 + y_w67_c15 + y_w67_c16 + y_w67_c17 + y_w67_c18 + y_w67_c19 + y_w67_c20 + y_w67_c21 + y_w67_c22 + y_w67_c23 + y_w67_c24 + y_w68_c0 + y_w68_c1 + y_w68_c2 + y_w68_c3 + y_w68_c4 + y_w68_c5 + y_w68_c6 + y_w68_c7 + y_w68_c8 + y_w68_c9 + y_w68_c10 + y_w68_c11 + y_w68_c12 + y_w68_c13 + y_w68_c14 + y_w68_c15 + y_w68_c16 + y_w68_c17 + y_w68_c18 + y_w68_c19 + y_w68_c20 + y_w68_c21 + y_w68_c22 + y_w68_c23 + y_w68_c24 + y_w69_c0 + y_w69_c1 + y_w69_c2 + y_w69_c3 + y_w69_c4 + y_w69_c5 + y_w69_c6 + y_w69_c7 + y_w69_c8 + y_w69_c9 + y_w69_c10 + y_w69_c11 + y_w69_c12 + y_w69_c13 + y_w69_c14 + y_w69_c15 + y_w69_c16 + y_w69_c17 + y_w69_c18 + y_w69_c19 + y_w69_c20 + y_w69_c21 + y_w69_c22 + y_w69_c23 + y_w69_c24 + y_w70_c0 + y_w70_c1 + y_w70_c2 + y_w70_c3 + y_w70_c4 + y_w70_c5 + y_w70_c6 + y_w70_c7 + y_w70_c8 + y_w70_c9 + y_w70_c10 + y_w70_c11 + y_w70_c12 + y_w70_c13 + y_w70_c14 + y_w70_c15 + y_w70_c16 + y_w70_c17 + y_w70_c18 + y_w70_c19 + y_w70_c20 + y_w70_c21 + y_w70_c22 + y_w70_c23 + y_w70_c24 + y_w71_c0 + y_w71_c1 + y_w71_c2 + y_w71_c3 + y_w71_c4 + y_w71_c5 + y_w71_c6 + y_w71_c7 + y_w71_c8 + y_w71_c9 + y_w71_c10 + y_w71_c11 + y_w71_c12 + y_w71_c13 + y_w71_c14 + y_w71_c15 + y_w71_c16 + y_w71_c17 + y_w71_c18 + y_w71_c19 + y_w71_c20 + y_w71_c21 + y_w71_c22 + y_w71_c23 + y_w71_c24 + y_w72_c0 + y_w72_c1 + y_w72_c2 + y_w72_c3 + y_w72_c4 + y_w72_c5 + y_w72_c6 + y_w72_c7 + y_w72_c8 + y_w72_c9 + y_w72_c10 + y_w72_c11 + y_w72_c12 + y_w72_c13 + y_w72_c14 + y_w72_c15 + y_w72_c16 + y_w72_c17 + y_w72_c18 + y_w72_c19 + y_w72_c20 + y_w72_c21 + y_w72_c22 + y_w72_c23 + y_w72_c24 + y_w73_c0 + y_w73_c1 + y_w73_c2 + y_w73_c3 + y_w73_c4 + y_w73_c5 + y_w73_c6 + y_w73_c7 + y_w73_c8 + y_w73_c9 + y_w73_c10 + y_w73_c11 + y_w73_c12 + y_w73_c13 + y_w73_c14 + y_w73_c15 + y_w73_c16 + y_w73_c17 + y_w73_c18 + y_w73_c19 + y_w73_c20 + y_w73_c21 + y_w73_c22 + y_w73_c23 + y_w73_c24 + y_w74_c0 + y_w74_c1 + y_w74_c2 + y_w74_c3 + y_w74_c4 + y_w74_c5 + y_w74_c6 + y_w74_c7 + y_w74_c8 + y_w74_c9 + y_w74_c10 + y_w74_c11 + y_w74_c12 + y_w74_c13 + y_w74_c14 + y_w74_c15 + y_w74_c16 + y_w74_c17 + y_w74_c18 + y_w74_c19 + y_w74_c20 + y_w74_c21 + y_w74_c22 + y_w74_c23 + y_w74_c24 + y_w75_c0 + y_w75_c1 + y_w75_c2 + y_w75_c3 + y_w75_c4 + y_w75_c5 + y_w75_c6 + y_w75_c7 + y_w75_c8 + y_w75_c9 + y_w75_c10 + y_w75_c11 + y_w75_c12 + y_w75_c13 + y_w75_c14 + y_w75_c15 + y_w75_c16 + y_w75_c17 + y_w75_c18 + y_w75_c19 + y_w75_c20 + y_w75_c21 + y_w75_c22 + y_w75_c23 + y_w75_c24 + y_w76_c0 + y_w76_c1 + y_w76_c2 + y_w76_c3 + y_w76_c4 + y_w76_c5 + y_w76_c6 + y_w76_c7 + y_w76_c8 + y_w76_c9 + y_w76_c10 + y_w76_c11 + y_w76_c12 + y_w76_c13 + y_w76_c14 + y_w76_c15 + y_w76_c16 + y_w76_c17 + y_w76_c18 + y_w76_c19 + y_w76_c20 + y_w76_c21 + y_w76_c22 + y_w76_c23 + y_w76_c24 + y_w77_c0 + y_w77_c1 + y_w77_c2 + y_w77_c3 + y_w77_c4 + y_w77_c5 + y_w77_c6 + y_w77_c7 + y_w77_c8 + y_w77_c9 + y_w77_c10 + y_w77_c11 + y_w77_c12 + y_w77_c13 + y_w77_c14 + y_w77_c15 + y_w77_c16 + y_w77_c17 + y_w77_c18 + y_w77_c19 + y_w77_c20 + y_w77_c21 + y_w77_c22 + y_w77_c23 + y_w77_c24 + y_w78_c0 + y_w78_c1 + y_w78_c2 + y_w78_c3 + y_w78_c4 + y_w78_c5 + y_w78_c6 + y_w78_c7 + y_w78_c8 + y_w78_c9 + y_w78_c10 + y_w78_c11 + y_w78_c12 + y_w78_c13 + y_w78_c14 + y_w78_c15 + y_w78_c16 + y_w78_c17 + y_w78_c18 + y_w78_c19 + y_w78_c20 + y_w78_c21 + y_w78_c22 + y_w78_c23 + y_w78_c24 + y_w79_c0 + y_w79_c1 + y_w79_c2 + y_w79_c3 + y_w79_c4 + y_w79_c5 + y_w79_c6 + y_w79_c7 + y_w79_c8 + y_w79_c9 + y_w79_c10 + y_w79_c11 + y_w79_c12 + y_w79_c13 + y_w79_c14 + y_w79_c15 + y_w79_c16 + y_w79_c17 + y_w79_c18 + y_w79_c19 + y_w79_c20 + y_w79_c21 + y_w79_c22 + y_w79_c23 + y_w79_c24 + y_w80_c0 + y_w80_c1 + y_w80_c2 + y_w80_c3 + y_w80_c4 + y_w80_c5 + y_w80_c6 + y_w80_c7 + y_w80_c8 + y_w80_c9 + y_w80_c10 + y_w80_c11 + y_w80_c12 + y_w80_c13 + y_w80_c14 + y_w80_c15 + y_w80_c16 + y_w80_c17 + y_w80_c18 + y_w80_c19 + y_w80_c20 + y_w80_c21 + y_w80_c22 + y_w80_c23 + y_w80_c24 + y_w81_c0 + y_w81_c1 + y_w81_c2 + y_w81_c3 + y_w81_c4 + y_w81_c5 + y_w81_c6 + y_w81_c7 + y_w81_c8 + y_w81_c9 + y_w81_c10 + y_w81_c11 + y_w81_c12 + y_w81_c13 + y_w81_c14 + y_w81_c15 + y_w81_c16 + y_w81_c17 + y_w81_c18 + y_w81_c19 + y_w81_c20 + y_w81_c21 + y_w81_c22 + y_w81_c23 + y_w81_c24 + y_w82_c0 + y_w82_c1 + y_w82_c2 + y_w82_c3 + y_w82_c4 + y_w82_c5 + y_w82_c6 + y_w82_c7 + y_w82_c8 + y_w82_c9 + y_w82_c10 + y_w82_c11 + y_w82_c12 + y_w82_c13 + y_w82_c14 + y_w82_c15 + y_w82_c16 + y_w82_c17 + y_w82_c18 + y_w82_c19 + y_w82_c20 + y_w82_c21 + y_w82_c22 + y_w82_c23 + y_w82_c24 + y_w83_c0 + y_w83_c1 + y_w83_c2 + y_w83_c3 + y_w83_c4 + y_w83_c5 + y_w83_c6 + y_w83_c7 + y_w83_c8 + y_w83_c9 + y_w83_c10 + y_w83_c11 + y_w83_c12 + y_w83_c13 + y_w83_c14 + y_w83_c15 + y_w83_c16 + y_w83_c17 + y_w83_c18 + y_w83_c19 + y_w83_c20 + y_w83_c21 + y_w83_c22 + y_w83_c23 + y_w83_c24 + y_w84_c0 + y_w84_c1 + y_w84_c2 + y_w84_c3 + y_w84_c4 + y_w84_c5 + y_w84_c6 + y_w84_c7 + y_w84_c8 + y_w84_c9 + y_w84_c10 + y_w84_c11 + y_w84_c12 + y_w84_c13 + y_w84_c14 + y_w84_c15 + y_w84_c16 + y_w84_c17 + y_w84_c18 + y_w84_c19 + y_w84_c20 + y_w84_c21 + y_w84_c22 + y_w84_c23 + y_w84_c24 + y_w85_c0 + y_w85_c1 + y_w85_c2 + y_w85_c3 + y_w85_c4 + y_w85_c5 + y_w85_c6 + y_w85_c7 + y_w85_c8 + y_w85_c9 + y_w85_c10 + y_w85_c11 + y_w85_c12 + y_w85_c13 + y_w85_c14 + y_w85_c15 + y_w85_c16 + y_w85_c17 + y_w85_c18 + y_w85_c19 + y_w85_c20 + y_w85_c21 + y_w85_c22 + y_w85_c23 + y_w85_c24 + y_w86_c0 + y_w86_c1 + y_w86_c2 + y_w86_c3 + y_w86_c4 + y_w86_c5 + y_w86_c6 + y_w86_c7 + y_w86_c8 + y_w86_c9 + y_w86_c10 + y_w86_c11 + y_w86_c12 + y_w86_c13 + y_w86_c14 + y_w86_c15 + y_w86_c16 + y_w86_c17 + y_w86_c18 + y_w86_c19 + y_w86_c20 + y_w86_c21 + y_w86_c22 + y_w86_c23 + y_w86_c24 + y_w87_c0 + y_w87_c1 + y_w87_c2 + y_w87_c3 + y_w87_c4 + y_w87_c5 + y_w87_c6 + y_w87_c7 + y_w87_c8 + y_w87_c9 + y_w87_c10 + y_w87_c11 + y_w87_c12 + y_w87_c13 + y_w87_c14 + y_w87_c15 + y_w87_c16 + y_w87_c17 + y_w87_c18 + y_w87_c19 + y_w87_c20 + y_w87_c21 + y_w87_c22 + y_w87_c23 + y_w87_c24 + y_w88_c0 + y_w88_c1 + y_w88_c2 + y_w88_c3 + y_w88_c4 + y_w88_c5 + y_w88_c6 + y_w88_c7 + y_w88_c8 + y_w88_c9 + y_w88_c10 + y_w88_c11 + y_w88_c12 + y_w88_c13 + y_w88_c14 + y_w88_c15 + y_w88_c16 + y_w88_c17 + y_w88_c18 + y_w88_c19 + y_w88_c20 + y_w88_c21 + y_w88_c22 + y_w88_c23 + y_w88_c24 + y_w89_c0 + y_w89_c1 + y_w89_c2 + y_w89_c3 + y_w89_c4 + y_w89_c5 + y_w89_c6 + y_w89_c7 + y_w89_c8 + y_w89_c9 + y_w89_c10 + y_w89_c11 + y_w89_c12 + y_w89_c13 + y_w89_c14 + y_w89_c15 + y_w89_c16 + y_w89_c17 + y_w89_c18 + y_w89_c19 + y_w89_c20 + y_w89_c21 + y_w89_c22 + y_w89_c23 + y_w89_c24 + y_w90_c0 + y_w90_c1 + y_w90_c2 + y_w90_c3 + y_w90_c4 + y_w90_c5 + y_w90_c6 + y_w90_c7 + y_w90_c8 + y_w90_c9 + y_w90_c10 + y_w90_c11 + y_w90_c12 + y_w90_c13 + y_w90_c14 + y_w90_c15 + y_w90_c16 + y_w90_c17 + y_w90_c18 + y_w90_c19 + y_w90_c20 + y_w90_c21 + y_w90_c22 + y_w90_c23 + y_w90_c24 + y_w91_c0 + y_w91_c1 + y_w91_c2 + y_w91_c3 + y_w91_c4 + y_w91_c5 + y_w91_c6 + y_w91_c7 + y_w91_c8 + y_w91_c9 + y_w91_c10 + y_w91_c11 + y_w91_c12 + y_w91_c13 + y_w91_c14 + y_w91_c15 + y_w91_c16 + y_w91_c17 + y_w91_c18 + y_w91_c19 + y_w91_c20 + y_w91_c21 + y_w91_c22 + y_w91_c23 + y_w91_c24 + y_w92_c0 + y_w92_c1 + y_w92_c2 + y_w92_c3 + y_w92_c4 + y_w92_c5 + y_w92_c6 + y_w92_c7 + y_w92_c8 + y_w92_c9 + y_w92_c10 + y_w92_c11 + y_w92_c12 + y_w92_c13 + y_w92_c14 + y_w92_c15 + y_w92_c16 + y_w92_c17 + y_w92_c18 + y_w92_c19 + y_w92_c20 + y_w92_c21 + y_w92_c22 + y_w92_c23 + y_w92_c24 + y_w93_c0 + y_w93_c1 + y_w93_c2 + y_w93_c3 + y_w93_c4 + y_w93_c5 + y_w93_c6 + y_w93_c7 + y_w93_c8 + y_w93_c9 + y_w93_c10 + y_w93_c11 + y_w93_c12 + y_w93_c13 + y_w93_c14 + y_w93_c15 + y_w93_c16 + y_w93_c17 + y_w93_c18 + y_w93_c19 + y_w93_c20 + y_w93_c21 + y_w93_c22 + y_w93_c23 + y_w93_c24 + y_w94_c0 + y_w94_c1 + y_w94_c2 + y_w94_c3 + y_w94_c4 + y_w94_c5 + y_w94_c6 + y_w94_c7 + y_w94_c8 + y_w94_c9 + y_w94_c10 + y_w94_c11 + y_w94_c12 + y_w94_c13 + y_w94_c14 + y_w94_c15 + y_w94_c16 + y_w94_c17 + y_w94_c18 + y_w94_c19 + y_w94_c20 + y_w94_c21 + y_w94_c22 + y_w94_c23 + y_w94_c24 + y_w95_c0 + y_w95_c1 + y_w95_c2 + y_w95_c3 + y_w95_c4 + y_w95_c5 + y_w95_c6 + y_w95_c7 + y_w95_c8 + y_w95_c9 + y_w95_c10 + y_w95_c11 + y_w95_c12 + y_w95_c13 + y_w95_c14 + y_w95_c15 + y_w95_c16 + y_w95_c17 + y_w95_c18 + y_w95_c19 + y_w95_c20 + y_w95_c21 + y_w95_c22 + y_w95_c23 + y_w95_c24 + y_w96_c0 + y_w96_c1 + y_w96_c2 + y_w96_c3 + y_w96_c4 + y_w96_c5 + y_w96_c6 + y_w96_c7 + y_w96_c8 + y_w96_c9 + y_w96_c10 + y_w96_c11 + y_w96_c12 + y_w96_c13 + y_w96_c14 + y_w96_c15 + y_w96_c16 + y_w96_c17 + y_w96_c18 + y_w96_c19 + y_w96_c20 + y_w96_c21 + y_w96_c22 + y_w96_c23 + y_w96_c24 + y_w97_c0 + y_w97_c1 + y_w97_c2 + y_w97_c3 + y_w97_c4 + y_w97_c5 + y_w97_c6 + y_w97_c7 + y_w97_c8 + y_w97_c9 + y_w97_c10 + y_w97_c11 + y_w97_c12 + y_w97_c13 + y_w97_c14 + y_w97_c15 + y_w97_c16 + y_w97_c17 + y_w97_c18 + y_w97_c19 + y_w97_c20 + y_w97_c21 + y_w97_c22 + y_w97_c23 + y_w97_c24 + y_w98_c0 + y_w98_c1 + y_w98_c2 + y_w98_c3 + y_w98_c4 + y_w98_c5 + y_w98_c6 + y_w98_c7 + y_w98_c8 + y_w98_c9 + y_w98_c10 + y_w98_c11 + y_w98_c12 + y_w98_c13 + y_w98_c14 + y_w98_c15 + y_w98_c16 + y_w98_c17 + y_w98_c18 + y_w98_c19 + y_w98_c20 + y_w98_c21 + y_w98_c22 + y_w98_c23 + y_w98_c24 + y_w99_c0 + y_w99_c1 + y_w99_c2 + y_w99_c3 + y_w99_c4 + y_w99_c5 + y_w99_c6 + y_w99_c7 + y_w99_c8 + y_w99_c9 + y_w99_c10 + y_w99_c11 + y_w99_c12 + y_w99_c13 + y_w99_c14 + y_w99_c15 + y_w99_c16 + y_w99_c17 + y_w99_c18 + y_w99_c19 + y_w99_c20 + y_w99_c21 + y_w99_c22 + y_w99_c23 + y_w99_c24 + y_w100_c0 + y_w100_c1 + y_w100_c2 + y_w100_c3 + y_w100_c4 + y_w100_c5 + y_w100_c6 + y_w100_c7 + y_w100_c8 + y_w100_c9 + y_w100_c10 + y_w100_c11 + y_w100_c12 + y_w100_c13 + y_w100_c14 + y_w100_c15 + y_w100_c16 + y_w100_c17 + y_w100_c18 + y_w100_c19 + y_w100_c20 + y_w100_c21 + y_w100_c22 + y_w100_c23 + y_w100_c24 + y_w101_c0 + y_w101_c1 + y_w101_c2 + y_w101_c3 + y_w101_c4 + y_w101_c5 + y_w101_c6 + y_w101_c7 + y_w101_c8 + y_w101_c9 + y_w101_c10 + y_w101_c11 + y_w101_c12 + y_w101_c13 + y_w101_c14 + y_w101_c15 + y_w101_c16 + y_w101_c17 + y_w101_c18 + y_w101_c19 + y_w101_c20 + y_w101_c21 + y_w101_c22 + y_w101_c23 + y_w101_c24 + y_w102_c0 + y_w102_c1 + y_w102_c2 + y_w102_c3 + y_w102_c4 + y_w102_c5 + y_w102_c6 + y_w102_c7 + y_w102_c8 + y_w102_c9 + y_w102_c10 + y_w102_c11 + y_w102_c12 + y_w102_c13 + y_w102_c14 + y_w102_c15 + y_w102_c16 + y_w102_c17 + y_w102_c18 + y_w102_c19 + y_w102_c20 + y_w102_c21 + y_w102_c22 + y_w102_c23 + y_w102_c24 + y_w103_c0 + y_w103_c1 + y_w103_c2 + y_w103_c3 + y_w103_c4 + y_w103_c5 + y_w103_c6 + y_w103_c7 + y_w103_c8 + y_w103_c9 + y_w103_c10 + y_w103_c11 + y_w103_c12 + y_w103_c13 + y_w103_c14 + y_w103_c15 + y_w103_c16 + y_w103_c17 + y_w103_c18 + y_w103_c19 + y_w103_c20 + y_w103_c21 + y_w103_c22 + y_w103_c23 + y_w103_c24 + y_w104_c0 + y_w104_c1 + y_w104_c2 + y_w104_c3 + y_w104_c4 + y_w104_c5 + y_w104_c6 + y_w104_c7 + y_w104_c8 + y_w104_c9 + y_w104_c10 + y_w104_c11 + y_w104_c12 + y_w104_c13 + y_w104_c14 + y_w104_c15 + y_w104_c16 + y_w104_c17 + y_w104_c18 + y_w104_c19 + y_w104_c20 + y_w104_c21 + y_w104_c22 + y_w104_c23 + y_w104_c24 + y_w105_c0 + y_w105_c1 + y_w105_c2 + y_w105_c3 + y_w105_c4 + y_w105_c5 + y_w105_c6 + y_w105_c7 + y_w105_c8 + y_w105_c9 + y_w105_c10 + y_w105_c11 + y_w105_c12 + y_w105_c13 + y_w105_c14 + y_w105_c15 + y_w105_c16 + y_w105_c17 + y_w105_c18 + y_w105_c19 + y_w105_c20 + y_w105_c21 + y_w105_c22 + y_w105_c23 + y_w105_c24 + y_w106_c0 + y_w106_c1 + y_w106_c2 + y_w106_c3 + y_w106_c4 + y_w106_c5 + y_w106_c6 + y_w106_c7 + y_w106_c8 + y_w106_c9 + y_w106_c10 + y_w106_c11 + y_w106_c12 + y_w106_c13 + y_w106_c14 + y_w106_c15 + y_w106_c16 + y_w106_c17 + y_w106_c18 + y_w106_c19 + y_w106_c20 + y_w106_c21 + y_w106_c22 + y_w106_c23 + y_w106_c24 + y_w107_c0 + y_w107_c1 + y_w107_c2 + y_w107_c3 + y_w107_c4 + y_w107_c5 + y_w107_c6 + y_w107_c7 + y_w107_c8 + y_w107_c9 + y_w107_c10 + y_w107_c11 + y_w107_c12 + y_w107_c13 + y_w107_c14 + y_w107_c15 + y_w107_c16 + y_w107_c17 + y_w107_c18 + y_w107_c19 + y_w107_c20 + y_w107_c21 + y_w107_c22 + y_w107_c23 + y_w107_c24 + y_w108_c0 + y_w108_c1 + y_w108_c2 + y_w108_c3 + y_w108_c4 + y_w108_c5 + y_w108_c6 + y_w108_c7 + y_w108_c8 + y_w108_c9 + y_w108_c10 + y_w108_c11 + y_w108_c12 + y_w108_c13 + y_w108_c14 + y_w108_c15 + y_w108_c16 + y_w108_c17 + y_w108_c18 + y_w108_c19 + y_w108_c20 + y_w108_c21 + y_w108_c22 + y_w108_c23 + y_w108_c24 + y_w109_c0 + y_w109_c1 + y_w109_c2 + y_w109_c3 + y_w109_c4 + y_w109_c5 + y_w109_c6 + y_w109_c7 + y_w109_c8 + y_w109_c9 + y_w109_c10 + y_w109_c11 + y_w109_c12 + y_w109_c13 + y_w109_c14 + y_w109_c15 + y_w109_c16 + y_w109_c17 + y_w109_c18 + y_w109_c19 + y_w109_c20 + y_w109_c21 + y_w109_c22 + y_w109_c23 + y_w109_c24 + y_w110_c0 + y_w110_c1 + y_w110_c2 + y_w110_c3 + y_w110_c4 + y_w110_c5 + y_w110_c6 + y_w110_c7 + y_w110_c8 + y_w110_c9 + y_w110_c10 + y_w110_c11 + y_w110_c12 + y_w110_c13 + y_w110_c14 + y_w110_c15 + y_w110_c16 + y_w110_c17 + y_w110_c18 + y_w110_c19 + y_w110_c20 + y_w110_c21 + y_w110_c22 + y_w110_c23 + y_w110_c24 + y_w111_c0 + y_w111_c1 + y_w111_c2 + y_w111_c3 + y_w111_c4 + y_w111_c5 + y_w111_c6 + y_w111_c7 + y_w111_c8 + y_w111_c9 + y_w111_c10 + y_w111_c11 + y_w111_c12 + y_w111_c13 + y_w111_c14 + y_w111_c15 + y_w111_c16 + y_w111_c17 + y_w111_c18 + y_w111_c19 + y_w111_c20 + y_w111_c21 + y_w111_c22 + y_w111_c23 + y_w111_c24 + y_w112_c0 + y_w112_c1 + y_w112_c2 + y_w112_c3 + y_w112_c4 + y_w112_c5 + y_w112_c6 + y_w112_c7 + y_w112_c8 + y_w112_c9 + y_w112_c10 + y_w112_c11 + y_w112_c12 + y_w112_c13 + y_w112_c14 + y_w112_c15 + y_w112_c16 + y_w112_c17 + y_w112_c18 + y_w112_c19 + y_w112_c20 + y_w112_c21 + y_w112_c22 + y_w112_c23 + y_w112_c24 + y_w113_c0 + y_w113_c1 + y_w113_c2 + y_w113_c3 + y_w113_c4 + y_w113_c5 + y_w113_c6 + y_w113_c7 + y_w113_c8 + y_w113_c9 + y_w113_c10 + y_w113_c11 + y_w113_c12 + y_w113_c13 + y_w113_c14 + y_w113_c15 + y_w113_c16 + y_w113_c17 + y_w113_c18 + y_w113_c19 + y_w113_c20 + y_w113_c21 + y_w113_c22 + y_w113_c23 + y_w113_c24 + y_w114_c0 + y_w114_c1 + y_w114_c2 + y_w114_c3 + y_w114_c4 + y_w114_c5 + y_w114_c6 + y_w114_c7 + y_w114_c8 + y_w114_c9 + y_w114_c10 + y_w114_c11 + y_w114_c12 + y_w114_c13 + y_w114_c14 + y_w114_c15 + y_w114_c16 + y_w114_c17 + y_w114_c18 + y_w114_c19 + y_w114_c20 + y_w114_c21 + y_w114_c22 + y_w114_c23 + y_w114_c24 + y_w115_c0 + y_w115_c1 + y_w115_c2 + y_w115_c3 + y_w115_c4 + y_w115_c5 + y_w115_c6 + y_w115_c7 + y_w115_c8 + y_w115_c9 + y_w115_c10 + y_w115_c11 + y_w115_c12 + y_w115_c13 + y_w115_c14 + y_w115_c15 + y_w115_c16 + y_w115_c17 + y_w115_c18 + y_w115_c19 + y_w115_c20 + y_w115_c21 + y_w115_c22 + y_w115_c23 + y_w115_c24 + y_w116_c0 + y_w116_c1 + y_w116_c2 + y_w116_c3 + y_w116_c4 + y_w116_c5 + y_w116_c6 + y_w116_c7 + y_w116_c8 + y_w116_c9 + y_w116_c10 + y_w116_c11 + y_w116_c12 + y_w116_c13 + y_w116_c14 + y_w116_c15 + y_w116_c16 + y_w116_c17 + y_w116_c18 + y_w116_c19 + y_w116_c20 + y_w116_c21 + y_w116_c22 + y_w116_c23 + y_w116_c24 + y_w117_c0 + y_w117_c1 + y_w117_c2 + y_w117_c3 + y_w117_c4 + y_w117_c5 + y_w117_c6 + y_w117_c7 + y_w117_c8 + y_w117_c9 + y_w117_c10 + y_w117_c11 + y_w117_c12 + y_w117_c13 + y_w117_c14 + y_w117_c15 + y_w117_c16 + y_w117_c17 + y_w117_c18 + y_w117_c19 + y_w117_c20 + y_w117_c21 + y_w117_c22 + y_w117_c23 + y_w117_c24 + y_w118_c0 + y_w118_c1 + y_w118_c2 + y_w118_c3 + y_w118_c4 + y_w118_c5 + y_w118_c6 + y_w118_c7 + y_w118_c8 + y_w118_c9 + y_w118_c10 + y_w118_c11 + y_w118_c12 + y_w118_c13 + y_w118_c14 + y_w118_c15 + y_w118_c16 + y_w118_c17 + y_w118_c18 + y_w118_c19 + y_w118_c20 + y_w118_c21 + y_w118_c22 + y_w118_c23 + y_w118_c24 + y_w119_c0 + y_w119_c1 + y_w119_c2 + y_w119_c3 + y_w119_c4 + y_w119_c5 + y_w119_c6 + y_w119_c7 + y_w119_c8 + y_w119_c9 + y_w119_c10 + y_w119_c11 + y_w119_c12 + y_w119_c13 + y_w119_c14 + y_w119_c15 + y_w119_c16 + y_w119_c17 + y_w119_c18 + y_w119_c19 + y_w119_c20 + y_w119_c21 + y_w119_c22 + y_w119_c23 + y_w119_c24 + y_w120_c0 + y_w120_c1 + y_w120_c2 + y_w120_c3 + y_w120_c4 + y_w120_c5 + y_w120_c6 + y_w120_c7 + y_w120_c8 + y_w120_c9 + y_w120_c10 + y_w120_c11 + y_w120_c12 + y_w120_c13 + y_w120_c14 + y_w120_c15 + y_w120_c16 + y_w120_c17 + y_w120_c18 + y_w120_c19 + y_w120_c20 + y_w120_c21 + y_w120_c22 + y_w120_c23 + y_w120_c24 + y_w121_c0 + y_w121_c1 + y_w121_c2 + y_w121_c3 + y_w121_c4 + y_w121_c5 + y_w121_c6 + y_w121_c7 + y_w121_c8 + y_w121_c9 + y_w121_c10 + y_w121_c11 + y_w121_c12 + y_w121_c13 + y_w121_c14 + y_w121_c15 + y_w121_c16 + y_w121_c17 + y_w121_c18 + y_w121_c19 + y_w121_c20 + y_w121_c21 + y_w121_c22 + y_w121_c23 + y_w121_c24 + y_w122_c0 + y_w122_c1 + y_w122_c2 + y_w122_c3 + y_w122_c4 + y_w122_c5 + y_w122_c6 + y_w122_c7 + y_w122_c8 + y_w122_c9 + y_w122_c10 + y_w122_c11 + y_w122_c12 + y_w122_c13 + y_w122_c14 + y_w122_c15 + y_w122_c16 + y_w122_c17 + y_w122_c18 + y_w122_c19 + y_w122_c20 + y_w122_c21 + y_w122_c22 + y_w122_c23 + y_w122_c24 + y_w123_c0 + y_w123_c1 + y_w123_c2 + y_w123_c3 + y_w123_c4 + y_w123_c5 + y_w123_c6 + y_w123_c7 + y_w123_c8 + y_w123_c9 + y_w123_c10 + y_w123_c11 + y_w123_c12 + y_w123_c13 + y_w123_c14 + y_w123_c15 + y_w123_c16 + y_w123_c17 + y_w123_c18 + y_w123_c19 + y_w123_c20 + y_w123_c21 + y_w123_c22 + y_w123_c23 + y_w123_c24 + y_w124_c0 + y_w124_c1 + y_w124_c2 + y_w124_c3 + y_w124_c4 + y_w124_c5 + y_w124_c6 + y_w124_c7 + y_w124_c8 + y_w124_c9 + y_w124_c10 + y_w124_c11 + y_w124_c12 + y_w124_c13 + y_w124_c14 + y_w124_c15 + y_w124_c16 + y_w124_c17 + y_w124_c18 + y_w124_c19 + y_w124_c20 + y_w124_c21 + y_w124_c22 + y_w124_c23 + y_w124_c24 + y_w125_c0 + y_w125_c1 + y_w125_c2 + y_w125_c3 + y_w125_c4 + y_w125_c5 + y_w125_c6 + y_w125_c7 + y_w125_c8 + y_w125_c9 + y_w125_c10 + y_w125_c11 + y_w125_c12 + y_w125_c13 + y_w125_c14 + y_w125_c15 + y_w125_c16 + y_w125_c17 + y_w125_c18 + y_w125_c19 + y_w125_c20 + y_w125_c21 + y_w125_c22 + y_w125_c23 + y_w125_c24 + y_w126_c0 + y_w126_c1 + y_w126_c2 + y_w126_c3 + y_w126_c4 + y_w126_c5 + y_w126_c6 + y_w126_c7 + y_w126_c8 + y_w126_c9 + y_w126_c10 + y_w126_c11 + y_w126_c12 + y_w126_c13 + y_w126_c14 + y_w126_c15 + y_w126_c16 + y_w126_c17 + y_w126_c18 + y_w126_c19 + y_w126_c20 + y_w126_c21 + y_w126_c22 + y_w126_c23 + y_w126_c24 + y_w127_c0 + y_w127_c1 + y_w127_c2 + y_w127_c3 + y_w127_c4 + y_w127_c5 + y_w127_c6 + y_w127_c7 + y_w127_c8 + y_w127_c9 + y_w127_c10 + y_w127_c11 + y_w127_c12 + y_w127_c13 + y_w127_c14 + y_w127_c15 + y_w127_c16 + y_w127_c17 + y_w127_c18 + y_w127_c19 + y_w127_c20 + y_w127_c21 + y_w127_c22 + y_w127_c23 + y_w127_c24 + y_w128_c0 + y_w128_c1 + y_w128_c2 + y_w128_c3 + y_w128_c4 + y_w128_c5 + y_w128_c6 + y_w128_c7 + y_w128_c8 + y_w128_c9 + y_w128_c10 + y_w128_c11 + y_w128_c12 + y_w128_c13 + y_w128_c14 + y_w128_c15 + y_w128_c16 + y_w128_c17 + y_w128_c18 + y_w128_c19 + y_w128_c20 + y_w128_c21 + y_w128_c22 + y_w128_c23 + y_w128_c24 + y_w129_c0 + y_w129_c1 + y_w129_c2 + y_w129_c3 + y_w129_c4 + y_w129_c5 + y_w129_c6 + y_w129_c7 + y_w129_c8 + y_w129_c9 + y_w129_c10 + y_w129_c11 + y_w129_c12 + y_w129_c13 + y_w129_c14 + y_w129_c15 + y_w129_c16 + y_w129_c17 + y_w129_c18 + y_w129_c19 + y_w129_c20 + y_w129_c21 + y_w129_c22 + y_w129_c23 + y_w129_c24 + y_w130_c0 + y_w130_c1 + y_w130_c2 + y_w130_c3 + y_w130_c4 + y_w130_c5 + y_w130_c6 + y_w130_c7 + y_w130_c8 + y_w130_c9 + y_w130_c10 + y_w130_c11 + y_w130_c12 + y_w130_c13 + y_w130_c14 + y_w130_c15 + y_w130_c16 + y_w130_c17 + y_w130_c18 + y_w130_c19 + y_w130_c20 + y_w130_c21 + y_w130_c22 + y_w130_c23 + y_w130_c24 + y_w131_c0 + y_w131_c1 + y_w131_c2 + y_w131_c3 + y_w131_c4 + y_w131_c5 + y_w131_c6 + y_w131_c7 + y_w131_c8 + y_w131_c9 + y_w131_c10 + y_w131_c11 + y_w131_c12 + y_w131_c13 + y_w131_c14 + y_w131_c15 + y_w131_c16 + y_w131_c17 + y_w131_c18 + y_w131_c19 + y_w131_c20 + y_w131_c21 + y_w131_c22 + y_w131_c23 + y_w131_c24 + y_w132_c0 + y_w132_c1 + y_w132_c2 + y_w132_c3 + y_w132_c4 + y_w132_c5 + y_w132_c6 + y_w132_c7 + y_w132_c8 + y_w132_c9 + y_w132_c10 + y_w132_c11 + y_w132_c12 + y_w132_c13 + y_w132_c14 + y_w132_c15 + y_w132_c16 + y_w132_c17 + y_w132_c18 + y_w132_c19 + y_w132_c20 + y_w132_c21 + y_w132_c22 + y_w132_c23 + y_w132_c24 + y_w133_c0 + y_w133_c1 + y_w133_c2 + y_w133_c3 + y_w133_c4 + y_w133_c5 + y_w133_c6 + y_w133_c7 + y_w133_c8 + y_w133_c9 + y_w133_c10 + y_w133_c11 + y_w133_c12 + y_w133_c13 + y_w133_c14 + y_w133_c15 + y_w133_c16 + y_w133_c17 + y_w133_c18 + y_w133_c19 + y_w133_c20 + y_w133_c21 + y_w133_c22 + y_w133_c23 + y_w133_c24 + y_w134_c0 + y_w134_c1 + y_w134_c2 + y_w134_c3 + y_w134_c4 + y_w134_c5 + y_w134_c6 + y_w134_c7 + y_w134_c8 + y_w134_c9 + y_w134_c10 + y_w134_c11 + y_w134_c12 + y_w134_c13 + y_w134_c14 + y_w134_c15 + y_w134_c16 + y_w134_c17 + y_w134_c18 + y_w134_c19 + y_w134_c20 + y_w134_c21 + y_w134_c22 + y_w134_c23 + y_w134_c24 + y_w135_c0 + y_w135_c1 + y_w135_c2 + y_w135_c3 + y_w135_c4 + y_w135_c5 + y_w135_c6 + y_w135_c7 + y_w135_c8 + y_w135_c9 + y_w135_c10 + y_w135_c11 + y_w135_c12 + y_w135_c13 + y_w135_c14 + y_w135_c15 + y_w135_c16 + y_w135_c17 + y_w135_c18 + y_w135_c19 + y_w135_c20 + y_w135_c21 + y_w135_c22 + y_w135_c23 + y_w135_c24 + y_w136_c0 + y_w136_c1 + y_w136_c2 + y_w136_c3 + y_w136_c4 + y_w136_c5 + y_w136_c6 + y_w136_c7 + y_w136_c8 + y_w136_c9 + y_w136_c10 + y_w136_c11 + y_w136_c12 + y_w136_c13 + y_w136_c14 + y_w136_c15 + y_w136_c16 + y_w136_c17 + y_w136_c18 + y_w136_c19 + y_w136_c20 + y_w136_c21 + y_w136_c22 + y_w136_c23 + y_w136_c24 + y_w137_c0 + y_w137_c1 + y_w137_c2 + y_w137_c3 + y_w137_c4 + y_w137_c5 + y_w137_c6 + y_w137_c7 + y_w137_c8 + y_w137_c9 + y_w137_c10 + y_w137_c11 + y_w137_c12 + y_w137_c13 + y_w137_c14 + y_w137_c15 + y_w137_c16 + y_w137_c17 + y_w137_c18 + y_w137_c19 + y_w137_c20 + y_w137_c21 + y_w137_c22 + y_w137_c23 + y_w137_c24 + y_w138_c0 + y_w138_c1 + y_w138_c2 + y_w138_c3 + y_w138_c4 + y_w138_c5 + y_w138_c6 + y_w138_c7 + y_w138_c8 + y_w138_c9 + y_w138_c10 + y_w138_c11 + y_w138_c12 + y_w138_c13 + y_w138_c14 + y_w138_c15 + y_w138_c16 + y_w138_c17 + y_w138_c18 + y_w138_c19 + y_w138_c20 + y_w138_c21 + y_w138_c22 + y_w138_c23 + y_w138_c24 + y_w139_c0 + y_w139_c1 + y_w139_c2 + y_w139_c3 + y_w139_c4 + y_w139_c5 + y_w139_c6 + y_w139_c7 + y_w139_c8 + y_w139_c9 + y_w139_c10 + y_w139_c11 + y_w139_c12 + y_w139_c13 + y_w139_c14 + y_w139_c15 + y_w139_c16 + y_w139_c17 + y_w139_c18 + y_w139_c19 + y_w139_c20 + y_w139_c21 + y_w139_c22 + y_w139_c23 + y_w139_c24 + y_w140_c0 + y_w140_c1 + y_w140_c2 + y_w140_c3 + y_w140_c4 + y_w140_c5 + y_w140_c6 + y_w140_c7 + y_w140_c8 + y_w140_c9 + y_w140_c10 + y_w140_c11 + y_w140_c12 + y_w140_c13 + y_w140_c14 + y_w140_c15 + y_w140_c16 + y_w140_c17 + y_w140_c18 + y_w140_c19 + y_w140_c20 + y_w140_c21 + y_w140_c22 + y_w140_c23 + y_w140_c24 + y_w141_c0 + y_w141_c1 + y_w141_c2 + y_w141_c3 + y_w141_c4 + y_w141_c5 + y_w141_c6 + y_w141_c7 + y_w141_c8 + y_w141_c9 + y_w141_c10 + y_w141_c11 + y_w141_c12 + y_w141_c13 + y_w141_c14 + y_w141_c15 + y_w141_c16 + y_w141_c17 + y_w141_c18 + y_w141_c19 + y_w141_c20 + y_w141_c21 + y_w141_c22 + y_w141_c23 + y_w141_c24 + y_w142_c0 + y_w142_c1 + y_w142_c2 + y_w142_c3 + y_w142_c4 + y_w142_c5 + y_w142_c6 + y_w142_c7 + y_w142_c8 + y_w142_c9 + y_w142_c10 + y_w142_c11 + y_w142_c12 + y_w142_c13 + y_w142_c14 + y_w142_c15 + y_w142_c16 + y_w142_c17 + y_w142_c18 + y_w142_c19 + y_w142_c20 + y_w142_c21 + y_w142_c22 + y_w142_c23 + y_w142_c24 + y_w143_c0 + y_w143_c1 + y_w143_c2 + y_w143_c3 + y_w143_c4 + y_w143_c5 + y_w143_c6 + y_w143_c7 + y_w143_c8 + y_w143_c9 + y_w143_c10 + y_w143_c11 + y_w143_c12 + y_w143_c13 + y_w143_c14 + y_w143_c15 + y_w143_c16 + y_w143_c17 + y_w143_c18 + y_w143_c19 + y_w143_c20 + y_w143_c21 + y_w143_c22 + y_w143_c23 + y_w143_c24 + y_w144_c0 + y_w144_c1 + y_w144_c2 + y_w144_c3 + y_w144_c4 + y_w144_c5 + y_w144_c6 + y_w144_c7 + y_w144_c8 + y_w144_c9 + y_w144_c10 + y_w144_c11 + y_w144_c12 + y_w144_c13 + y_w144_c14 + y_w144_c15 + y_w144_c16 + y_w144_c17 + y_w144_c18 + y_w144_c19 + y_w144_c20 + y_w144_c21 + y_w144_c22 + y_w144_c23 + y_w144_c24 + y_w145_c0 + y_w145_c1 + y_w145_c2 + y_w145_c3 + y_w145_c4 + y_w145_c5 + y_w145_c6 + y_w145_c7 + y_w145_c8 + y_w145_c9 + y_w145_c10 + y_w145_c11 + y_w145_c12 + y_w145_c13 + y_w145_c14 + y_w145_c15 + y_w145_c16 + y_w145_c17 + y_w145_c18 + y_w145_c19 + y_w145_c20 + y_w145_c21 + y_w145_c22 + y_w145_c23 + y_w145_c24 + y_w146_c0 + y_w146_c1 + y_w146_c2 + y_w146_c3 + y_w146_c4 + y_w146_c5 + y_w146_c6 + y_w146_c7 + y_w146_c8 + y_w146_c9 + y_w146_c10 + y_w146_c11 + y_w146_c12 + y_w146_c13 + y_w146_c14 + y_w146_c15 + y_w146_c16 + y_w146_c17 + y_w146_c18 + y_w146_c19 + y_w146_c20 + y_w146_c21 + y_w146_c22 + y_w146_c23 + y_w146_c24 + y_w147_c0 + y_w147_c1 + y_w147_c2 + y_w147_c3 + y_w147_c4 + y_w147_c5 + y_w147_c6 + y_w147_c7 + y_w147_c8 + y_w147_c9 + y_w147_c10 + y_w147_c11 + y_w147_c12 + y_w147_c13 + y_w147_c14 + y_w147_c15 + y_w147_c16 + y_w147_c17 + y_w147_c18 + y_w147_c19 + y_w147_c20 + y_w147_c21 + y_w147_c22 + y_w147_c23 + y_w147_c24 + y_w148_c0 + y_w148_c1 + y_w148_c2 + y_w148_c3 + y_w148_c4 + y_w148_c5 + y_w148_c6 + y_w148_c7 + y_w148_c8 + y_w148_c9 + y_w148_c10 + y_w148_c11 + y_w148_c12 + y_w148_c13 + y_w148_c14 + y_w148_c15 + y_w148_c16 + y_w148_c17 + y_w148_c18 + y_w148_c19 + y_w148_c20 + y_w148_c21 + y_w148_c22 + y_w148_c23 + y_w148_c24 + y_w149_c0 + y_w149_c1 + y_w149_c2 + y_w149_c3 + y_w149_c4 + y_w149_c5 + y_w149_c6 + y_w149_c7 + y_w149_c8 + y_w149_c9 + y_w149_c10 + y_w149_c11 + y_w149_c12 + y_w149_c13 + y_w149_c14 + y_w149_c15 + y_w149_c16 + y_w149_c17 + y_w149_c18 + y_w149_c19 + y_w149_c20 + y_w149_c21 + y_w149_c22 + y_w149_c23 + y_w149_c24 + y_w150_c0 + y_w150_c1 + y_w150_c2 + y_w150_c3 + y_w150_c4 + y_w150_c5 + y_w150_c6 + y_w150_c7 + y_w150_c8 + y_w150_c9 + y_w150_c10 + y_w150_c11 + y_w150_c12 + y_w150_c13 + y_w150_c14 + y_w150_c15 + y_w150_c16 + y_w150_c17 + y_w150_c18 + y_w150_c19 + y_w150_c20 + y_w150_c21 + y_w150_c22 + y_w150_c23 + y_w150_c24 + y_w151_c0 + y_w151_c1 + y_w151_c2 + y_w151_c3 + y_w151_c4 + y_w151_c5 + y_w151_c6 + y_w151_c7 + y_w151_c8 + y_w151_c9 + y_w151_c10 + y_w151_c11 + y_w151_c12 + y_w151_c13 + y_w151_c14 + y_w151_c15 + y_w151_c16 + y_w151_c17 + y_w151_c18 + y_w151_c19 + y_w151_c20 + y_w151_c21 + y_w151_c22 + y_w151_c23 + y_w151_c24 + y_w152_c0 + y_w152_c1 + y_w152_c2 + y_w152_c3 + y_w152_c4 + y_w152_c5 + y_w152_c6 + y_w152_c7 + y_w152_c8 + y_w152_c9 + y_w152_c10 + y_w152_c11 + y_w152_c12 + y_w152_c13 + y_w152_c14 + y_w152_c15 + y_w152_c16 + y_w152_c17 + y_w152_c18 + y_w152_c19 + y_w152_c20 + y_w152_c21 + y_w152_c22 + y_w152_c23 + y_w152_c24 + y_w153_c0 + y_w153_c1 + y_w153_c2 + y_w153_c3 + y_w153_c4 + y_w153_c5 + y_w153_c6 + y_w153_c7 + y_w153_c8 + y_w153_c9 + y_w153_c10 + y_w153_c11 + y_w153_c12 + y_w153_c13 + y_w153_c14 + y_w153_c15 + y_w153_c16 + y_w153_c17 + y_w153_c18 + y_w153_c19 + y_w153_c20 + y_w153_c21 + y_w153_c22 + y_w153_c23 + y_w153_c24 + y_w154_c0 + y_w154_c1 + y_w154_c2 + y_w154_c3 + y_w154_c4 + y_w154_c5 + y_w154_c6 + y_w154_c7 + y_w154_c8 + y_w154_c9 + y_w154_c10 + y_w154_c11 + y_w154_c12 + y_w154_c13 + y_w154_c14 + y_w154_c15 + y_w154_c16 + y_w154_c17 + y_w154_c18 + y_w154_c19 + y_w154_c20 + y_w154_c21 + y_w154_c22 + y_w154_c23 + y_w154_c24 + y_w155_c0 + y_w155_c1 + y_w155_c2 + y_w155_c3 + y_w155_c4 + y_w155_c5 + y_w155_c6 + y_w155_c7 + y_w155_c8 + y_w155_c9 + y_w155_c10 + y_w155_c11 + y_w155_c12 + y_w155_c13 + y_w155_c14 + y_w155_c15 + y_w155_c16 + y_w155_c17 + y_w155_c18 + y_w155_c19 + y_w155_c20 + y_w155_c21 + y_w155_c22 + y_w155_c23 + y_w155_c24 + y_w156_c0 + y_w156_c1 + y_w156_c2 + y_w156_c3 + y_w156_c4 + y_w156_c5 + y_w156_c6 + y_w156_c7 + y_w156_c8 + y_w156_c9 + y_w156_c10 + y_w156_c11 + y_w156_c12 + y_w156_c13 + y_w156_c14 + y_w156_c15 + y_w156_c16 + y_w156_c17 + y_w156_c18 + y_w156_c19 + y_w156_c20 + y_w156_c21 + y_w156_c22 + y_w156_c23 + y_w156_c24 + y_w157_c0 + y_w157_c1 + y_w157_c2 + y_w157_c3 + y_w157_c4 + y_w157_c5 + y_w157_c6 + y_w157_c7 + y_w157_c8 + y_w157_c9 + y_w157_c10 + y_w157_c11 + y_w157_c12 + y_w157_c13 + y_w157_c14 + y_w157_c15 + y_w157_c16 + y_w157_c17 + y_w157_c18 + y_w157_c19 + y_w157_c20 + y_w157_c21 + y_w157_c22 + y_w157_c23 + y_w157_c24 + y_w158_c0 + y_w158_c1 + y_w158_c2 + y_w158_c3 + y_w158_c4 + y_w158_c5 + y_w158_c6 + y_w158_c7 + y_w158_c8 + y_w158_c9 + y_w158_c10 + y_w158_c11 + y_w158_c12 + y_w158_c13 + y_w158_c14 + y_w158_c15 + y_w158_c16 + y_w158_c17 + y_w158_c18 + y_w158_c19 + y_w158_c20 + y_w158_c21 + y_w158_c22 + y_w158_c23 + y_w158_c24 + y_w159_c0 + y_w159_c1 + y_w159_c2 + y_w159_c3 + y_w159_c4 + y_w159_c5 + y_w159_c6 + y_w159_c7 + y_w159_c8 + y_w159_c9 + y_w159_c10 + y_w159_c11 + y_w159_c12 + y_w159_c13 + y_w159_c14 + y_w159_c15 + y_w159_c16 + y_w159_c17 + y_w159_c18 + y_w159_c19 + y_w159_c20 + y_w159_c21 + y_w159_c22 + y_w159_c23 + y_w159_c24 + y_w160_c0 + y_w160_c1 + y_w160_c2 + y_w160_c3 + y_w160_c4 + y_w160_c5 + y_w160_c6 + y_w160_c7 + y_w160_c8 + y_w160_c9 + y_w160_c10 + y_w160_c11 + y_w160_c12 + y_w160_c13 + y_w160_c14 + y_w160_c15 + y_w160_c16 + y_w160_c17 + y_w160_c18 + y_w160_c19 + y_w160_c20 + y_w160_c21 + y_w160_c22 + y_w160_c23 + y_w160_c24 + y_w161_c0 + y_w161_c1 + y_w161_c2 + y_w161_c3 + y_w161_c4 + y_w161_c5 + y_w161_c6 + y_w161_c7 + y_w161_c8 + y_w161_c9 + y_w161_c10 + y_w161_c11 + y_w161_c12 + y_w161_c13 + y_w161_c14 + y_w161_c15 + y_w161_c16 + y_w161_c17 + y_w161_c18 + y_w161_c19 + y_w161_c20 + y_w161_c21 + y_w161_c22 + y_w161_c23 + y_w161_c24 + y_w162_c0 + y_w162_c1 + y_w162_c2 + y_w162_c3 + y_w162_c4 + y_w162_c5 + y_w162_c6 + y_w162_c7 + y_w162_c8 + y_w162_c9 + y_w162_c10 + y_w162_c11 + y_w162_c12 + y_w162_c13 + y_w162_c14 + y_w162_c15 + y_w162_c16 + y_w162_c17 + y_w162_c18 + y_w162_c19 + y_w162_c20 + y_w162_c21 + y_w162_c22 + y_w162_c23 + y_w162_c24 + y_w163_c0 + y_w163_c1 + y_w163_c2 + y_w163_c3 + y_w163_c4 + y_w163_c5 + y_w163_c6 + y_w163_c7 + y_w163_c8 + y_w163_c9 + y_w163_c10 + y_w163_c11 + y_w163_c12 + y_w163_c13 + y_w163_c14 + y_w163_c15 + y_w163_c16 + y_w163_c17 + y_w163_c18 + y_w163_c19 + y_w163_c20 + y_w163_c21 + y_w163_c22 + y_w163_c23 + y_w163_c24 + y_w164_c0 + y_w164_c1 + y_w164_c2 + y_w164_c3 + y_w164_c4 + y_w164_c5 + y_w164_c6 + y_w164_c7 + y_w164_c8 + y_w164_c9 + y_w164_c10 + y_w164_c11 + y_w164_c12 + y_w164_c13 + y_w164_c14 + y_w164_c15 + y_w164_c16 + y_w164_c17 + y_w164_c18 + y_w164_c19 + y_w164_c20 + y_w164_c21 + y_w164_c22 + y_w164_c23 + y_w164_c24 + y_w165_c0 + y_w165_c1 + y_w165_c2 + y_w165_c3 + y_w165_c4 + y_w165_c5 + y_w165_c6 + y_w165_c7 + y_w165_c8 + y_w165_c9 + y_w165_c10 + y_w165_c11 + y_w165_c12 + y_w165_c13 + y_w165_c14 + y_w165_c15 + y_w165_c16 + y_w165_c17 + y_w165_c18 + y_w165_c19 + y_w165_c20 + y_w165_c21 + y_w165_c22 + y_w165_c23 + y_w165_c24 + y_w166_c0 + y_w166_c1 + y_w166_c2 + y_w166_c3 + y_w166_c4 + y_w166_c5 + y_w166_c6 + y_w166_c7 + y_w166_c8 + y_w166_c9 + y_w166_c10 + y_w166_c11 + y_w166_c12 + y_w166_c13 + y_w166_c14 + y_w166_c15 + y_w166_c16 + y_w166_c17 + y_w166_c18 + y_w166_c19 + y_w166_c20 + y_w166_c21 + y_w166_c22 + y_w166_c23 + y_w166_c24 + y_w167_c0 + y_w167_c1 + y_w167_c2 + y_w167_c3 + y_w167_c4 + y_w167_c5 + y_w167_c6 + y_w167_c7 + y_w167_c8 + y_w167_c9 + y_w167_c10 + y_w167_c11 + y_w167_c12 + y_w167_c13 + y_w167_c14 + y_w167_c15 + y_w167_c16 + y_w167_c17 + y_w167_c18 + y_w167_c19 + y_w167_c20 + y_w167_c21 + y_w167_c22 + y_w167_c23 + y_w167_c24 + y_w168_c0 + y_w168_c1 + y_w168_c2 + y_w168_c3 + y_w168_c4 + y_w168_c5 + y_w168_c6 + y_w168_c7 + y_w168_c8 + y_w168_c9 + y_w168_c10 + y_w168_c11 + y_w168_c12 + y_w168_c13 + y_w168_c14 + y_w168_c15 + y_w168_c16 + y_w168_c17 + y_w168_c18 + y_w168_c19 + y_w168_c20 + y_w168_c21 + y_w168_c22 + y_w168_c23 + y_w168_c24 + y_w169_c0 + y_w169_c1 + y_w169_c2 + y_w169_c3 + y_w169_c4 + y_w169_c5 + y_w169_c6 + y_w169_c7 + y_w169_c8 + y_w169_c9 + y_w169_c10 + y_w169_c11 + y_w169_c12 + y_w169_c13 + y_w169_c14 + y_w169_c15 + y_w169_c16 + y_w169_c17 + y_w169_c18 + y_w169_c19 + y_w169_c20 + y_w169_c21 + y_w169_c22 + y_w169_c23 + y_w169_c24 + y_w170_c0 + y_w170_c1 + y_w170_c2 + y_w170_c3 + y_w170_c4 + y_w170_c5 + y_w170_c6 + y_w170_c7 + y_w170_c8 + y_w170_c9 + y_w170_c10 + y_w170_c11 + y_w170_c12 + y_w170_c13 + y_w170_c14 + y_w170_c15 + y_w170_c16 + y_w170_c17 + y_w170_c18 + y_w170_c19 + y_w170_c20 + y_w170_c21 + y_w170_c22 + y_w170_c23 + y_w170_c24 + y_w171_c0 + y_w171_c1 + y_w171_c2 + y_w171_c3 + y_w171_c4 + y_w171_c5 + y_w171_c6 + y_w171_c7 + y_w171_c8 + y_w171_c9 + y_w171_c10 + y_w171_c11 + y_w171_c12 + y_w171_c13 + y_w171_c14 + y_w171_c15 + y_w171_c16 + y_w171_c17 + y_w171_c18 + y_w171_c19 + y_w171_c20 + y_w171_c21 + y_w171_c22 + y_w171_c23 + y_w171_c24 + y_w172_c0 + y_w172_c1 + y_w172_c2 + y_w172_c3 + y_w172_c4 + y_w172_c5 + y_w172_c6 + y_w172_c7 + y_w172_c8 + y_w172_c9 + y_w172_c10 + y_w172_c11 + y_w172_c12 + y_w172_c13 + y_w172_c14 + y_w172_c15 + y_w172_c16 + y_w172_c17 + y_w172_c18 + y_w172_c19 + y_w172_c20 + y_w172_c21 + y_w172_c22 + y_w172_c23 + y_w172_c24 + y_w173_c0 + y_w173_c1 + y_w173_c2 + y_w173_c3 + y_w173_c4 + y_w173_c5 + y_w173_c6 + y_w173_c7 + y_w173_c8 + y_w173_c9 + y_w173_c10 + y_w173_c11 + y_w173_c12 + y_w173_c13 + y_w173_c14 + y_w173_c15 + y_w173_c16 + y_w173_c17 + y_w173_c18 + y_w173_c19 + y_w173_c20 + y_w173_c21 + y_w173_c22 + y_w173_c23 + y_w173_c24 + y_w174_c0 + y_w174_c1 + y_w174_c2 + y_w174_c3 + y_w174_c4 + y_w174_c5 + y_w174_c6 + y_w174_c7 + y_w174_c8 + y_w174_c9 + y_w174_c10 + y_w174_c11 + y_w174_c12 + y_w174_c13 + y_w174_c14 + y_w174_c15 + y_w174_c16 + y_w174_c17 + y_w174_c18 + y_w174_c19 + y_w174_c20 + y_w174_c21 + y_w174_c22 + y_w174_c23 + y_w174_c24 + y_w175_c0 + y_w175_c1 + y_w175_c2 + y_w175_c3 + y_w175_c4 + y_w175_c5 + y_w175_c6 + y_w175_c7 + y_w175_c8 + y_w175_c9 + y_w175_c10 + y_w175_c11 + y_w175_c12 + y_w175_c13 + y_w175_c14 + y_w175_c15 + y_w175_c16 + y_w175_c17 + y_w175_c18 + y_w175_c19 + y_w175_c20 + y_w175_c21 + y_w175_c22 + y_w175_c23 + y_w175_c24 + y_w176_c0 + y_w176_c1 + y_w176_c2 + y_w176_c3 + y_w176_c4 + y_w176_c5 + y_w176_c6 + y_w176_c7 + y_w176_c8 + y_w176_c9 + y_w176_c10 + y_w176_c11 + y_w176_c12 + y_w176_c13 + y_w176_c14 + y_w176_c15 + y_w176_c16 + y_w176_c17 + y_w176_c18 + y_w176_c19 + y_w176_c20 + y_w176_c21 + y_w176_c22 + y_w176_c23 + y_w176_c24 + y_w177_c0 + y_w177_c1 + y_w177_c2 + y_w177_c3 + y_w177_c4 + y_w177_c5 + y_w177_c6 + y_w177_c7 + y_w177_c8 + y_w177_c9 + y_w177_c10 + y_w177_c11 + y_w177_c12 + y_w177_c13 + y_w177_c14 + y_w177_c15 + y_w177_c16 + y_w177_c17 + y_w177_c18 + y_w177_c19 + y_w177_c20 + y_w177_c21 + y_w177_c22 + y_w177_c23 + y_w177_c24 + y_w178_c0 + y_w178_c1 + y_w178_c2 + y_w178_c3 + y_w178_c4 + y_w178_c5 + y_w178_c6 + y_w178_c7 + y_w178_c8 + y_w178_c9 + y_w178_c10 + y_w178_c11 + y_w178_c12 + y_w178_c13 + y_w178_c14 + y_w178_c15 + y_w178_c16 + y_w178_c17 + y_w178_c18 + y_w178_c19 + y_w178_c20 + y_w178_c21 + y_w178_c22 + y_w178_c23 + y_w178_c24 + y_w179_c0 + y_w179_c1 + y_w179_c2 + y_w179_c3 + y_w179_c4 + y_w179_c5 + y_w179_c6 + y_w179_c7 + y_w179_c8 + y_w179_c9 + y_w179_c10 + y_w179_c11 + y_w179_c12 + y_w179_c13 + y_w179_c14 + y_w179_c15 + y_w179_c16 + y_w179_c17 + y_w179_c18 + y_w179_c19 + y_w179_c20 + y_w179_c21 + y_w179_c22 + y_w179_c23 + y_w179_c24 + y_w180_c0 + y_w180_c1 + y_w180_c2 + y_w180_c3 + y_w180_c4 + y_w180_c5 + y_w180_c6 + y_w180_c7 + y_w180_c8 + y_w180_c9 + y_w180_c10 + y_w180_c11 + y_w180_c12 + y_w180_c13 + y_w180_c14 + y_w180_c15 + y_w180_c16 + y_w180_c17 + y_w180_c18 + y_w180_c19 + y_w180_c20 + y_w180_c21 + y_w180_c22 + y_w180_c23 + y_w180_c24 + y_w181_c0 + y_w181_c1 + y_w181_c2 + y_w181_c3 + y_w181_c4 + y_w181_c5 + y_w181_c6 + y_w181_c7 + y_w181_c8 + y_w181_c9 + y_w181_c10 + y_w181_c11 + y_w181_c12 + y_w181_c13 + y_w181_c14 + y_w181_c15 + y_w181_c16 + y_w181_c17 + y_w181_c18 + y_w181_c19 + y_w181_c20 + y_w181_c21 + y_w181_c22 + y_w181_c23 + y_w181_c24 + y_w182_c0 + y_w182_c1 + y_w182_c2 + y_w182_c3 + y_w182_c4 + y_w182_c5 + y_w182_c6 + y_w182_c7 + y_w182_c8 + y_w182_c9 + y_w182_c10 + y_w182_c11 + y_w182_c12 + y_w182_c13 + y_w182_c14 + y_w182_c15 + y_w182_c16 + y_w182_c17 + y_w182_c18 + y_w182_c19 + y_w182_c20 + y_w182_c21 + y_w182_c22 + y_w182_c23 + y_w182_c24 + y_w183_c0 + y_w183_c1 + y_w183_c2 + y_w183_c3 + y_w183_c4 + y_w183_c5 + y_w183_c6 + y_w183_c7 + y_w183_c8 + y_w183_c9 + y_w183_c10 + y_w183_c11 + y_w183_c12 + y_w183_c13 + y_w183_c14 + y_w183_c15 + y_w183_c16 + y_w183_c17 + y_w183_c18 + y_w183_c19 + y_w183_c20 + y_w183_c21 + y_w183_c22 + y_w183_c23 + y_w183_c24 + y_w184_c0 + y_w184_c1 + y_w184_c2 + y_w184_c3 + y_w184_c4 + y_w184_c5 + y_w184_c6 + y_w184_c7 + y_w184_c8 + y_w184_c9 + y_w184_c10 + y_w184_c11 + y_w184_c12 + y_w184_c13 + y_w184_c14 + y_w184_c15 + y_w184_c16 + y_w184_c17 + y_w184_c18 + y_w184_c19 + y_w184_c20 + y_w184_c21 + y_w184_c22 + y_w184_c23 + y_w184_c24 + y_w185_c0 + y_w185_c1 + y_w185_c2 + y_w185_c3 + y_w185_c4 + y_w185_c5 + y_w185_c6 + y_w185_c7 + y_w185_c8 + y_w185_c9 + y_w185_c10 + y_w185_c11 + y_w185_c12 + y_w185_c13 + y_w185_c14 + y_w185_c15 + y_w185_c16 + y_w185_c17 + y_w185_c18 + y_w185_c19 + y_w185_c20 + y_w185_c21 + y_w185_c22 + y_w185_c23 + y_w185_c24 + y_w186_c0 + y_w186_c1 + y_w186_c2 + y_w186_c3 + y_w186_c4 + y_w186_c5 + y_w186_c6 + y_w186_c7 + y_w186_c8 + y_w186_c9 + y_w186_c10 + y_w186_c11 + y_w186_c12 + y_w186_c13 + y_w186_c14 + y_w186_c15 + y_w186_c16 + y_w186_c17 + y_w186_c18 + y_w186_c19 + y_w186_c20 + y_w186_c21 + y_w186_c22 + y_w186_c23 + y_w186_c24 + y_w187_c0 + y_w187_c1 + y_w187_c2 + y_w187_c3 + y_w187_c4 + y_w187_c5 + y_w187_c6 + y_w187_c7 + y_w187_c8 + y_w187_c9 + y_w187_c10 + y_w187_c11 + y_w187_c12 + y_w187_c13 + y_w187_c14 + y_w187_c15 + y_w187_c16 + y_w187_c17 + y_w187_c18 + y_w187_c19 + y_w187_c20 + y_w187_c21 + y_w187_c22 + y_w187_c23 + y_w187_c24 + y_w188_c0 + y_w188_c1 + y_w188_c2 + y_w188_c3 + y_w188_c4 + y_w188_c5 + y_w188_c6 + y_w188_c7 + y_w188_c8 + y_w188_c9 + y_w188_c10 + y_w188_c11 + y_w188_c12 + y_w188_c13 + y_w188_c14 + y_w188_c15 + y_w188_c16 + y_w188_c17 + y_w188_c18 + y_w188_c19 + y_w188_c20 + y_w188_c21 + y_w188_c22 + y_w188_c23 + y_w188_c24 + y_w189_c0 + y_w189_c1 + y_w189_c2 + y_w189_c3 + y_w189_c4 + y_w189_c5 + y_w189_c6 + y_w189_c7 + y_w189_c8 + y_w189_c9 + y_w189_c10 + y_w189_c11 + y_w189_c12 + y_w189_c13 + y_w189_c14 + y_w189_c15 + y_w189_c16 + y_w189_c17 + y_w189_c18 + y_w189_c19 + y_w189_c20 + y_w189_c21 + y_w189_c22 + y_w189_c23 + y_w189_c24 + y_w190_c0 + y_w190_c1 + y_w190_c2 + y_w190_c3 + y_w190_c4 + y_w190_c5 + y_w190_c6 + y_w190_c7 + y_w190_c8 + y_w190_c9 + y_w190_c10 + y_w190_c11 + y_w190_c12 + y_w190_c13 + y_w190_c14 + y_w190_c15 + y_w190_c16 + y_w190_c17 + y_w190_c18 + y_w190_c19 + y_w190_c20 + y_w190_c21 + y_w190_c22 + y_w190_c23 + y_w190_c24 + y_w191_c0 + y_w191_c1 + y_w191_c2 + y_w191_c3 + y_w191_c4 + y_w191_c5 + y_w191_c6 + y_w191_c7 + y_w191_c8 + y_w191_c9 + y_w191_c10 + y_w191_c11 + y_w191_c12 + y_w191_c13 + y_w191_c14 + y_w191_c15 + y_w191_c16 + y_w191_c17 + y_w191_c18 + y_w191_c19 + y_w191_c20 + y_w191_c21 + y_w191_c22 + y_w191_c23 + y_w191_c24 + y_w192_c0 + y_w192_c1 + y_w192_c2 + y_w192_c3 + y_w192_c4 + y_w192_c5 + y_w192_c6 + y_w192_c7 + y_w192_c8 + y_w192_c9 + y_w192_c10 + y_w192_c11 + y_w192_c12 + y_w192_c13 + y_w192_c14 + y_w192_c15 + y_w192_c16 + y_w192_c17 + y_w192_c18 + y_w192_c19 + y_w192_c20 + y_w192_c21 + y_w192_c22 + y_w192_c23 + y_w192_c24 + y_w193_c0 + y_w193_c1 + y_w193_c2 + y_w193_c3 + y_w193_c4 + y_w193_c5 + y_w193_c6 + y_w193_c7 + y_w193_c8 + y_w193_c9 + y_w193_c10 + y_w193_c11 + y_w193_c12 + y_w193_c13 + y_w193_c14 + y_w193_c15 + y_w193_c16 + y_w193_c17 + y_w193_c18 + y_w193_c19 + y_w193_c20 + y_w193_c21 + y_w193_c22 + y_w193_c23 + y_w193_c24 + y_w194_c0 + y_w194_c1 + y_w194_c2 + y_w194_c3 + y_w194_c4 + y_w194_c5 + y_w194_c6 + y_w194_c7 + y_w194_c8 + y_w194_c9 + y_w194_c10 + y_w194_c11 + y_w194_c12 + y_w194_c13 + y_w194_c14 + y_w194_c15 + y_w194_c16 + y_w194_c17 + y_w194_c18 + y_w194_c19 + y_w194_c20 + y_w194_c21 + y_w194_c22 + y_w194_c23 + y_w194_c24 + y_w195_c0 + y_w195_c1 + y_w195_c2 + y_w195_c3 + y_w195_c4 + y_w195_c5 + y_w195_c6 + y_w195_c7 + y_w195_c8 + y_w195_c9 + y_w195_c10 + y_w195_c11 + y_w195_c12 + y_w195_c13 + y_w195_c14 + y_w195_c15 + y_w195_c16 + y_w195_c17 + y_w195_c18 + y_w195_c19 + y_w195_c20 + y_w195_c21 + y_w195_c22 + y_w195_c23 + y_w195_c24 + y_w196_c0 + y_w196_c1 + y_w196_c2 + y_w196_c3 + y_w196_c4 + y_w196_c5 + y_w196_c6 + y_w196_c7 + y_w196_c8 + y_w196_c9 + y_w196_c10 + y_w196_c11 + y_w196_c12 + y_w196_c13 + y_w196_c14 + y_w196_c15 + y_w196_c16 + y_w196_c17 + y_w196_c18 + y_w196_c19 + y_w196_c20 + y_w196_c21 + y_w196_c22 + y_w196_c23 + y_w196_c24 + y_w197_c0 + y_w197_c1 + y_w197_c2 + y_w197_c3 + y_w197_c4 + y_w197_c5 + y_w197_c6 + y_w197_c7 + y_w197_c8 + y_w197_c9 + y_w197_c10 + y_w197_c11 + y_w197_c12 + y_w197_c13 + y_w197_c14 + y_w197_c15 + y_w197_c16 + y_w197_c17 + y_w197_c18 + y_w197_c19 + y_w197_c20 + y_w197_c21 + y_w197_c22 + y_w197_c23 + y_w197_c24 + y_w198_c0 + y_w198_c1 + y_w198_c2 + y_w198_c3 + y_w198_c4 + y_w198_c5 + y_w198_c6 + y_w198_c7 + y_w198_c8 + y_w198_c9 + y_w198_c10 + y_w198_c11 + y_w198_c12 + y_w198_c13 + y_w198_c14 + y_w198_c15 + y_w198_c16 + y_w198_c17 + y_w198_c18 + y_w198_c19 + y_w198_c20 + y_w198_c21 + y_w198_c22 + y_w198_c23 + y_w198_c24 + y_w199_c0 + y_w199_c1 + y_w199_c2 + y_w199_c3 + y_w199_c4 + y_w199_c5 + y_w199_c6 + y_w199_c7 + y_w199_c8 + y_w199_c9 + y_w199_c10 + y_w199_c11 + y_w199_c12 + y_w199_c13 + y_w199_c14 + y_w199_c15 + y_w199_c16 + y_w199_c17 + y_w199_c18 + y_w199_c19 + y_w199_c20 + y_w199_c21 + y_w199_c22 + y_w199_c23 + y_w199_c24 + y_w200_c0 + y_w200_c1 + y_w200_c2 + y_w200_c3 + y_w200_c4 + y_w200_c5 + y_w200_c6 + y_w200_c7 + y_w200_c8 + y_w200_c9 + y_w200_c10 + y_w200_c11 + y_w200_c12 + y_w200_c13 + y_w200_c14 + y_w200_c15 + y_w200_c16 + y_w200_c17 + y_w200_c18 + y_w200_c19 + y_w200_c20 + y_w200_c21 + y_w200_c22 + y_w200_c23 + y_w200_c24 + y_w201_c0 + y_w201_c1 + y_w201_c2 + y_w201_c3 + y_w201_c4 + y_w201_c5 + y_w201_c6 + y_w201_c7 + y_w201_c8 + y_w201_c9 + y_w201_c10 + y_w201_c11 + y_w201_c12 + y_w201_c13 + y_w201_c14 + y_w201_c15 + y_w201_c16 + y_w201_c17 + y_w201_c18 + y_w201_c19 + y_w201_c20 + y_w201_c21 + y_w201_c22 + y_w201_c23 + y_w201_c24 + y_w202_c0 + y_w202_c1 + y_w202_c2 + y_w202_c3 + y_w202_c4 + y_w202_c5 + y_w202_c6 + y_w202_c7 + y_w202_c8 + y_w202_c9 + y_w202_c10 + y_w202_c11 + y_w202_c12 + y_w202_c13 + y_w202_c14 + y_w202_c15 + y_w202_c16 + y_w202_c17 + y_w202_c18 + y_w202_c19 + y_w202_c20 + y_w202_c21 + y_w202_c22 + y_w202_c23 + y_w202_c24 + y_w203_c0 + y_w203_c1 + y_w203_c2 + y_w203_c3 + y_w203_c4 + y_w203_c5 + y_w203_c6 + y_w203_c7 + y_w203_c8 + y_w203_c9 + y_w203_c10 + y_w203_c11 + y_w203_c12 + y_w203_c13 + y_w203_c14 + y_w203_c15 + y_w203_c16 + y_w203_c17 + y_w203_c18 + y_w203_c19 + y_w203_c20 + y_w203_c21 + y_w203_c22 + y_w203_c23 + y_w203_c24 + y_w204_c0 + y_w204_c1 + y_w204_c2 + y_w204_c3 + y_w204_c4 + y_w204_c5 + y_w204_c6 + y_w204_c7 + y_w204_c8 + y_w204_c9 + y_w204_c10 + y_w204_c11 + y_w204_c12 + y_w204_c13 + y_w204_c14 + y_w204_c15 + y_w204_c16 + y_w204_c17 + y_w204_c18 + y_w204_c19 + y_w204_c20 + y_w204_c21 + y_w204_c22 + y_w204_c23 + y_w204_c24 + y_w205_c0 + y_w205_c1 + y_w205_c2 + y_w205_c3 + y_w205_c4 + y_w205_c5 + y_w205_c6 + y_w205_c7 + y_w205_c8 + y_w205_c9 + y_w205_c10 + y_w205_c11 + y_w205_c12 + y_w205_c13 + y_w205_c14 + y_w205_c15 + y_w205_c16 + y_w205_c17 + y_w205_c18 + y_w205_c19 + y_w205_c20 + y_w205_c21 + y_w205_c22 + y_w205_c23 + y_w205_c24 + y_w206_c0 + y_w206_c1 + y_w206_c2 + y_w206_c3 + y_w206_c4 + y_w206_c5 + y_w206_c6 + y_w206_c7 + y_w206_c8 + y_w206_c9 + y_w206_c10 + y_w206_c11 + y_w206_c12 + y_w206_c13 + y_w206_c14 + y_w206_c15 + y_w206_c16 + y_w206_c17 + y_w206_c18 + y_w206_c19 + y_w206_c20 + y_w206_c21 + y_w206_c22 + y_w206_c23 + y_w206_c24 + y_w207_c0 + y_w207_c1 + y_w207_c2 + y_w207_c3 + y_w207_c4 + y_w207_c5 + y_w207_c6 + y_w207_c7 + y_w207_c8 + y_w207_c9 + y_w207_c10 + y_w207_c11 + y_w207_c12 + y_w207_c13 + y_w207_c14 + y_w207_c15 + y_w207_c16 + y_w207_c17 + y_w207_c18 + y_w207_c19 + y_w207_c20 + y_w207_c21 + y_w207_c22 + y_w207_c23 + y_w207_c24 + y_w208_c0 + y_w208_c1 + y_w208_c2 + y_w208_c3 + y_w208_c4 + y_w208_c5 + y_w208_c6 + y_w208_c7 + y_w208_c8 + y_w208_c9 + y_w208_c10 + y_w208_c11 + y_w208_c12 + y_w208_c13 + y_w208_c14 + y_w208_c15 + y_w208_c16 + y_w208_c17 + y_w208_c18 + y_w208_c19 + y_w208_c20 + y_w208_c21 + y_w208_c22 + y_w208_c23 + y_w208_c24 + y_w209_c0 + y_w209_c1 + y_w209_c2 + y_w209_c3 + y_w209_c4 + y_w209_c5 + y_w209_c6 + y_w209_c7 + y_w209_c8 + y_w209_c9 + y_w209_c10 + y_w209_c11 + y_w209_c12 + y_w209_c13 + y_w209_c14 + y_w209_c15 + y_w209_c16 + y_w209_c17 + y_w209_c18 + y_w209_c19 + y_w209_c20 + y_w209_c21 + y_w209_c22 + y_w209_c23 + y_w209_c24 + y_w210_c0 + y_w210_c1 + y_w210_c2 + y_w210_c3 + y_w210_c4 + y_w210_c5 + y_w210_c6 + y_w210_c7 + y_w210_c8 + y_w210_c9 + y_w210_c10 + y_w210_c11 + y_w210_c12 + y_w210_c13 + y_w210_c14 + y_w210_c15 + y_w210_c16 + y_w210_c17 + y_w210_c18 + y_w210_c19 + y_w210_c20 + y_w210_c21 + y_w210_c22 + y_w210_c23 + y_w210_c24 + y_w211_c0 + y_w211_c1 + y_w211_c2 + y_w211_c3 + y_w211_c4 + y_w211_c5 + y_w211_c6 + y_w211_c7 + y_w211_c8 + y_w211_c9 + y_w211_c10 + y_w211_c11 + y_w211_c12 + y_w211_c13 + y_w211_c14 + y_w211_c15 + y_w211_c16 + y_w211_c17 + y_w211_c18 + y_w211_c19 + y_w211_c20 + y_w211_c21 + y_w211_c22 + y_w211_c23 + y_w211_c24 + y_w212_c0 + y_w212_c1 + y_w212_c2 + y_w212_c3 + y_w212_c4 + y_w212_c5 + y_w212_c6 + y_w212_c7 + y_w212_c8 + y_w212_c9 + y_w212_c10 + y_w212_c11 + y_w212_c12 + y_w212_c13 + y_w212_c14 + y_w212_c15 + y_w212_c16 + y_w212_c17 + y_w212_c18 + y_w212_c19 + y_w212_c20 + y_w212_c21 + y_w212_c22 + y_w212_c23 + y_w212_c24 + y_w213_c0 + y_w213_c1 + y_w213_c2 + y_w213_c3 + y_w213_c4 + y_w213_c5 + y_w213_c6 + y_w213_c7 + y_w213_c8 + y_w213_c9 + y_w213_c10 + y_w213_c11 + y_w213_c12 + y_w213_c13 + y_w213_c14 + y_w213_c15 + y_w213_c16 + y_w213_c17 + y_w213_c18 + y_w213_c19 + y_w213_c20 + y_w213_c21 + y_w213_c22 + y_w213_c23 + y_w213_c24 + y_w214_c0 + y_w214_c1 + y_w214_c2 + y_w214_c3 + y_w214_c4 + y_w214_c5 + y_w214_c6 + y_w214_c7 + y_w214_c8 + y_w214_c9 + y_w214_c10 + y_w214_c11 + y_w214_c12 + y_w214_c13 + y_w214_c14 + y_w214_c15 + y_w214_c16 + y_w214_c17 + y_w214_c18 + y_w214_c19 + y_w214_c20 + y_w214_c21 + y_w214_c22 + y_w214_c23 + y_w214_c24 + y_w215_c0 + y_w215_c1 + y_w215_c2 + y_w215_c3 + y_w215_c4 + y_w215_c5 + y_w215_c6 + y_w215_c7 + y_w215_c8 + y_w215_c9 + y_w215_c10 + y_w215_c11 + y_w215_c12 + y_w215_c13 + y_w215_c14 + y_w215_c15 + y_w215_c16 + y_w215_c17 + y_w215_c18 + y_w215_c19 + y_w215_c20 + y_w215_c21 + y_w215_c22 + y_w215_c23 + y_w215_c24 + y_w216_c0 + y_w216_c1 + y_w216_c2 + y_w216_c3 + y_w216_c4 + y_w216_c5 + y_w216_c6 + y_w216_c7 + y_w216_c8 + y_w216_c9 + y_w216_c10 + y_w216_c11 + y_w216_c12 + y_w216_c13 + y_w216_c14 + y_w216_c15 + y_w216_c16 + y_w216_c17 + y_w216_c18 + y_w216_c19 + y_w216_c20 + y_w216_c21 + y_w216_c22 + y_w216_c23 + y_w216_c24 + y_w217_c0 + y_w217_c1 + y_w217_c2 + y_w217_c3 + y_w217_c4 + y_w217_c5 + y_w217_c6 + y_w217_c7 + y_w217_c8 + y_w217_c9 + y_w217_c10 + y_w217_c11 + y_w217_c12 + y_w217_c13 + y_w217_c14 + y_w217_c15 + y_w217_c16 + y_w217_c17 + y_w217_c18 + y_w217_c19 + y_w217_c20 + y_w217_c21 + y_w217_c22 + y_w217_c23 + y_w217_c24 + y_w218_c0 + y_w218_c1 + y_w218_c2 + y_w218_c3 + y_w218_c4 + y_w218_c5 + y_w218_c6 + y_w218_c7 + y_w218_c8 + y_w218_c9 + y_w218_c10 + y_w218_c11 + y_w218_c12 + y_w218_c13 + y_w218_c14 + y_w218_c15 + y_w218_c16 + y_w218_c17 + y_w218_c18 + y_w218_c19 + y_w218_c20 + y_w218_c21 + y_w218_c22 + y_w218_c23 + y_w218_c24 + y_w219_c0 + y_w219_c1 + y_w219_c2 + y_w219_c3 + y_w219_c4 + y_w219_c5 + y_w219_c6 + y_w219_c7 + y_w219_c8 + y_w219_c9 + y_w219_c10 + y_w219_c11 + y_w219_c12 + y_w219_c13 + y_w219_c14 + y_w219_c15 + y_w219_c16 + y_w219_c17 + y_w219_c18 + y_w219_c19 + y_w219_c20 + y_w219_c21 + y_w219_c22 + y_w219_c23 + y_w219_c24 + y_w220_c0 + y_w220_c1 + y_w220_c2 + y_w220_c3 + y_w220_c4 + y_w220_c5 + y_w220_c6 + y_w220_c7 + y_w220_c8 + y_w220_c9 + y_w220_c10 + y_w220_c11 + y_w220_c12 + y_w220_c13 + y_w220_c14 + y_w220_c15 + y_w220_c16 + y_w220_c17 + y_w220_c18 + y_w220_c19 + y_w220_c20 + y_w220_c21 + y_w220_c22 + y_w220_c23 + y_w220_c24 + y_w221_c0 + y_w221_c1 + y_w221_c2 + y_w221_c3 + y_w221_c4 + y_w221_c5 + y_w221_c6 + y_w221_c7 + y_w221_c8 + y_w221_c9 + y_w221_c10 + y_w221_c11 + y_w221_c12 + y_w221_c13 + y_w221_c14 + y_w221_c15 + y_w221_c16 + y_w221_c17 + y_w221_c18 + y_w221_c19 + y_w221_c20 + y_w221_c21 + y_w221_c22 + y_w221_c23 + y_w221_c24 + y_w222_c0 + y_w222_c1 + y_w222_c2 + y_w222_c3 + y_w222_c4 + y_w222_c5 + y_w222_c6 + y_w222_c7 + y_w222_c8 + y_w222_c9 + y_w222_c10 + y_w222_c11 + y_w222_c12 + y_w222_c13 + y_w222_c14 + y_w222_c15 + y_w222_c16 + y_w222_c17 + y_w222_c18 + y_w222_c19 + y_w222_c20 + y_w222_c21 + y_w222_c22 + y_w222_c23 + y_w222_c24 + y_w223_c0 + y_w223_c1 + y_w223_c2 + y_w223_c3 + y_w223_c4 + y_w223_c5 + y_w223_c6 + y_w223_c7 + y_w223_c8 + y_w223_c9 + y_w223_c10 + y_w223_c11 + y_w223_c12 + y_w223_c13 + y_w223_c14 + y_w223_c15 + y_w223_c16 + y_w223_c17 + y_w223_c18 + y_w223_c19 + y_w223_c20 + y_w223_c21 + y_w223_c22 + y_w223_c23 + y_w223_c24 + y_w224_c0 + y_w224_c1 + y_w224_c2 + y_w224_c3 + y_w224_c4 + y_w224_c5 + y_w224_c6 + y_w224_c7 + y_w224_c8 + y_w224_c9 + y_w224_c10 + y_w224_c11 + y_w224_c12 + y_w224_c13 + y_w224_c14 + y_w224_c15 + y_w224_c16 + y_w224_c17 + y_w224_c18 + y_w224_c19 + y_w224_c20 + y_w224_c21 + y_w224_c22 + y_w224_c23 + y_w224_c24 + y_w225_c0 + y_w225_c1 + y_w225_c2 + y_w225_c3 + y_w225_c4 + y_w225_c5 + y_w225_c6 + y_w225_c7 + y_w225_c8 + y_w225_c9 + y_w225_c10 + y_w225_c11 + y_w225_c12 + y_w225_c13 + y_w225_c14 + y_w225_c15 + y_w225_c16 + y_w225_c17 + y_w225_c18 + y_w225_c19 + y_w225_c20 + y_w225_c21 + y_w225_c22 + y_w225_c23 + y_w225_c24 + y_w226_c0 + y_w226_c1 + y_w226_c2 + y_w226_c3 + y_w226_c4 + y_w226_c5 + y_w226_c6 + y_w226_c7 + y_w226_c8 + y_w226_c9 + y_w226_c10 + y_w226_c11 + y_w226_c12 + y_w226_c13 + y_w226_c14 + y_w226_c15 + y_w226_c16 + y_w226_c17 + y_w226_c18 + y_w226_c19 + y_w226_c20 + y_w226_c21 + y_w226_c22 + y_w226_c23 + y_w226_c24 + y_w227_c0 + y_w227_c1 + y_w227_c2 + y_w227_c3 + y_w227_c4 + y_w227_c5 + y_w227_c6 + y_w227_c7 + y_w227_c8 + y_w227_c9 + y_w227_c10 + y_w227_c11 + y_w227_c12 + y_w227_c13 + y_w227_c14 + y_w227_c15 + y_w227_c16 + y_w227_c17 + y_w227_c18 + y_w227_c19 + y_w227_c20 + y_w227_c21 + y_w227_c22 + y_w227_c23 + y_w227_c24 + y_w228_c0 + y_w228_c1 + y_w228_c2 + y_w228_c3 + y_w228_c4 + y_w228_c5 + y_w228_c6 + y_w228_c7 + y_w228_c8 + y_w228_c9 + y_w228_c10 + y_w228_c11 + y_w228_c12 + y_w228_c13 + y_w228_c14 + y_w228_c15 + y_w228_c16 + y_w228_c17 + y_w228_c18 + y_w228_c19 + y_w228_c20 + y_w228_c21 + y_w228_c22 + y_w228_c23 + y_w228_c24 + y_w229_c0 + y_w229_c1 + y_w229_c2 + y_w229_c3 + y_w229_c4 + y_w229_c5 + y_w229_c6 + y_w229_c7 + y_w229_c8 + y_w229_c9 + y_w229_c10 + y_w229_c11 + y_w229_c12 + y_w229_c13 + y_w229_c14 + y_w229_c15 + y_w229_c16 + y_w229_c17 + y_w229_c18 + y_w229_c19 + y_w229_c20 + y_w229_c21 + y_w229_c22 + y_w229_c23 + y_w229_c24 + y_w230_c0 + y_w230_c1 + y_w230_c2 + y_w230_c3 + y_w230_c4 + y_w230_c5 + y_w230_c6 + y_w230_c7 + y_w230_c8 + y_w230_c9 + y_w230_c10 + y_w230_c11 + y_w230_c12 + y_w230_c13 + y_w230_c14 + y_w230_c15 + y_w230_c16 + y_w230_c17 + y_w230_c18 + y_w230_c19 + y_w230_c20 + y_w230_c21 + y_w230_c22 + y_w230_c23 + y_w230_c24 + y_w231_c0 + y_w231_c1 + y_w231_c2 + y_w231_c3 + y_w231_c4 + y_w231_c5 + y_w231_c6 + y_w231_c7 + y_w231_c8 + y_w231_c9 + y_w231_c10 + y_w231_c11 + y_w231_c12 + y_w231_c13 + y_w231_c14 + y_w231_c15 + y_w231_c16 + y_w231_c17 + y_w231_c18 + y_w231_c19 + y_w231_c20 + y_w231_c21 + y_w231_c22 + y_w231_c23 + y_w231_c24 + y_w232_c0 + y_w232_c1 + y_w232_c2 + y_w232_c3 + y_w232_c4 + y_w232_c5 + y_w232_c6 + y_w232_c7 + y_w232_c8 + y_w232_c9 + y_w232_c10 + y_w232_c11 + y_w232_c12 + y_w232_c13 + y_w232_c14 + y_w232_c15 + y_w232_c16 + y_w232_c17 + y_w232_c18 + y_w232_c19 + y_w232_c20 + y_w232_c21 + y_w232_c22 + y_w232_c23 + y_w232_c24 + y_w233_c0 + y_w233_c1 + y_w233_c2 + y_w233_c3 + y_w233_c4 + y_w233_c5 + y_w233_c6 + y_w233_c7 + y_w233_c8 + y_w233_c9 + y_w233_c10 + y_w233_c11 + y_w233_c12 + y_w233_c13 + y_w233_c14 + y_w233_c15 + y_w233_c16 + y_w233_c17 + y_w233_c18 + y_w233_c19 + y_w233_c20 + y_w233_c21 + y_w233_c22 + y_w233_c23 + y_w233_c24 + y_w234_c0 + y_w234_c1 + y_w234_c2 + y_w234_c3 + y_w234_c4 + y_w234_c5 + y_w234_c6 + y_w234_c7 + y_w234_c8 + y_w234_c9 + y_w234_c10 + y_w234_c11 + y_w234_c12 + y_w234_c13 + y_w234_c14 + y_w234_c15 + y_w234_c16 + y_w234_c17 + y_w234_c18 + y_w234_c19 + y_w234_c20 + y_w234_c21 + y_w234_c22 + y_w234_c23 + y_w234_c24 + y_w235_c0 + y_w235_c1 + y_w235_c2 + y_w235_c3 + y_w235_c4 + y_w235_c5 + y_w235_c6 + y_w235_c7 + y_w235_c8 + y_w235_c9 + y_w235_c10 + y_w235_c11 + y_w235_c12 + y_w235_c13 + y_w235_c14 + y_w235_c15 + y_w235_c16 + y_w235_c17 + y_w235_c18 + y_w235_c19 + y_w235_c20 + y_w235_c21 + y_w235_c22 + y_w235_c23 + y_w235_c24 + y_w236_c0 + y_w236_c1 + y_w236_c2 + y_w236_c3 + y_w236_c4 + y_w236_c5 + y_w236_c6 + y_w236_c7 + y_w236_c8 + y_w236_c9 + y_w236_c10 + y_w236_c11 + y_w236_c12 + y_w236_c13 + y_w236_c14 + y_w236_c15 + y_w236_c16 + y_w236_c17 + y_w236_c18 + y_w236_c19 + y_w236_c20 + y_w236_c21 + y_w236_c22 + y_w236_c23 + y_w236_c24 + y_w237_c0 + y_w237_c1 + y_w237_c2 + y_w237_c3 + y_w237_c4 + y_w237_c5 + y_w237_c6 + y_w237_c7 + y_w237_c8 + y_w237_c9 + y_w237_c10 + y_w237_c11 + y_w237_c12 + y_w237_c13 + y_w237_c14 + y_w237_c15 + y_w237_c16 + y_w237_c17 + y_w237_c18 + y_w237_c19 + y_w237_c20 + y_w237_c21 + y_w237_c22 + y_w237_c23 + y_w237_c24 + y_w238_c0 + y_w238_c1 + y_w238_c2 + y_w238_c3 + y_w238_c4 + y_w238_c5 + y_w238_c6 + y_w238_c7 + y_w238_c8 + y_w238_c9 + y_w238_c10 + y_w238_c11 + y_w238_c12 + y_w238_c13 + y_w238_c14 + y_w238_c15 + y_w238_c16 + y_w238_c17 + y_w238_c18 + y_w238_c19 + y_w238_c20 + y_w238_c21 + y_w238_c22 + y_w238_c23 + y_w238_c24 + y_w239_c0 + y_w239_c1 + y_w239_c2 + y_w239_c3 + y_w239_c4 + y_w239_c5 + y_w239_c6 + y_w239_c7 + y_w239_c8 + y_w239_c9 + y_w239_c10 + y_w239_c11 + y_w239_c12 + y_w239_c13 + y_w239_c14 + y_w239_c15 + y_w239_c16 + y_w239_c17 + y_w239_c18 + y_w239_c19 + y_w239_c20 + y_w239_c21 + y_w239_c22 + y_w239_c23 + y_w239_c24 + y_w240_c0 + y_w240_c1 + y_w240_c2 + y_w240_c3 + y_w240_c4 + y_w240_c5 + y_w240_c6 + y_w240_c7 + y_w240_c8 + y_w240_c9 + y_w240_c10 + y_w240_c11 + y_w240_c12 + y_w240_c13 + y_w240_c14 + y_w240_c15 + y_w240_c16 + y_w240_c17 + y_w240_c18 + y_w240_c19 + y_w240_c20 + y_w240_c21 + y_w240_c22 + y_w240_c23 + y_w240_c24 + y_w241_c0 + y_w241_c1 + y_w241_c2 + y_w241_c3 + y_w241_c4 + y_w241_c5 + y_w241_c6 + y_w241_c7 + y_w241_c8 + y_w241_c9 + y_w241_c10 + y_w241_c11 + y_w241_c12 + y_w241_c13 + y_w241_c14 + y_w241_c15 + y_w241_c16 + y_w241_c17 + y_w241_c18 + y_w241_c19 + y_w241_c20 + y_w241_c21 + y_w241_c22 + y_w241_c23 + y_w241_c24 + y_w242_c0 + y_w242_c1 + y_w242_c2 + y_w242_c3 + y_w242_c4 + y_w242_c5 + y_w242_c6 + y_w242_c7 + y_w242_c8 + y_w242_c9 + y_w242_c10 + y_w242_c11 + y_w242_c12 + y_w242_c13 + y_w242_c14 + y_w242_c15 + y_w242_c16 + y_w242_c17 + y_w242_c18 + y_w242_c19 + y_w242_c20 + y_w242_c21 + y_w242_c22 + y_w242_c23 + y_w242_c24 + y_w243_c0 + y_w243_c1 + y_w243_c2 + y_w243_c3 + y_w243_c4 + y_w243_c5 + y_w243_c6 + y_w243_c7 + y_w243_c8 + y_w243_c9 + y_w243_c10 + y_w243_c11 + y_w243_c12 + y_w243_c13 + y_w243_c14 + y_w243_c15 + y_w243_c16 + y_w243_c17 + y_w243_c18 + y_w243_c19 + y_w243_c20 + y_w243_c21 + y_w243_c22 + y_w243_c23 + y_w243_c24 + y_w244_c0 + y_w244_c1 + y_w244_c2 + y_w244_c3 + y_w244_c4 + y_w244_c5 + y_w244_c6 + y_w244_c7 + y_w244_c8 + y_w244_c9 + y_w244_c10 + y_w244_c11 + y_w244_c12 + y_w244_c13 + y_w244_c14 + y_w244_c15 + y_w244_c16 + y_w244_c17 + y_w244_c18 + y_w244_c19 + y_w244_c20 + y_w244_c21 + y_w244_c22 + y_w244_c23 + y_w244_c24 + y_w245_c0 + y_w245_c1 + y_w245_c2 + y_w245_c3 + y_w245_c4 + y_w245_c5 + y_w245_c6 + y_w245_c7 + y_w245_c8 + y_w245_c9 + y_w245_c10 + y_w245_c11 + y_w245_c12 + y_w245_c13 + y_w245_c14 + y_w245_c15 + y_w245_c16 + y_w245_c17 + y_w245_c18 + y_w245_c19 + y_w245_c20 + y_w245_c21 + y_w245_c22 + y_w245_c23 + y_w245_c24 + y_w246_c0 + y_w246_c1 + y_w246_c2 + y_w246_c3 + y_w246_c4 + y_w246_c5 + y_w246_c6 + y_w246_c7 + y_w246_c8 + y_w246_c9 + y_w246_c10 + y_w246_c11 + y_w246_c12 + y_w246_c13 + y_w246_c14 + y_w246_c15 + y_w246_c16 + y_w246_c17 + y_w246_c18 + y_w246_c19 + y_w246_c20 + y_w246_c21 + y_w246_c22 + y_w246_c23 + y_w246_c24 + y_w247_c0 + y_w247_c1 + y_w247_c2 + y_w247_c3 + y_w247_c4 + y_w247_c5 + y_w247_c6 + y_w247_c7 + y_w247_c8 + y_w247_c9 + y_w247_c10 + y_w247_c11 + y_w247_c12 + y_w247_c13 + y_w247_c14 + y_w247_c15 + y_w247_c16 + y_w247_c17 + y_w247_c18 + y_w247_c19 + y_w247_c20 + y_w247_c21 + y_w247_c22 + y_w247_c23 + y_w247_c24 + y_w248_c0 + y_w248_c1 + y_w248_c2 + y_w248_c3 + y_w248_c4 + y_w248_c5 + y_w248_c6 + y_w248_c7 + y_w248_c8 + y_w248_c9 + y_w248_c10 + y_w248_c11 + y_w248_c12 + y_w248_c13 + y_w248_c14 + y_w248_c15 + y_w248_c16 + y_w248_c17 + y_w248_c18 + y_w248_c19 + y_w248_c20 + y_w248_c21 + y_w248_c22 + y_w248_c23 + y_w248_c24 + y_w249_c0 + y_w249_c1 + y_w249_c2 + y_w249_c3 + y_w249_c4 + y_w249_c5 + y_w249_c6 + y_w249_c7 + y_w249_c8 + y_w249_c9 + y_w249_c10 + y_w249_c11 + y_w249_c12 + y_w249_c13 + y_w249_c14 + y_w249_c15 + y_w249_c16 + y_w249_c17 + y_w249_c18 + y_w249_c19 + y_w249_c20 + y_w249_c21 + y_w249_c22 + y_w249_c23 + y_w249_c24 - TotalLatency = 0
  cap_cpu_c0: 0.36 x_w0_c0 + 0.14 x_w1_c0 + 0.36 x_w2_c0 + 0.29 x_w3_c0 + 0.42 x_w4_c0 + 0.27 x_w5_c0 + 0.17 x_w6_c0 + 0.13 x_w7_c0 + 0.37 x_w8_c0 + 0.18 x_w9_c0 + 0.40 x_w10_c0 + 0.15 x_w11_c0 + 0.42 x_w12_c0 + 0.24 x_w13_c0 + 0.32 x_w14_c0 + 0.17 x_w15_c0 + 0.42 x_w16_c0 + 0.43 x_w17_c0 + 0.43 x_w18_c0 + 0.27 x_w19_c0 + 0.15 x_w20_c0 + 0.40 x_w21_c0 + 0.14 x_w22_c0 + 0.22 x_w23_c0 + 0.24 x_w24_c0 + 0.21 x_w25_c0 + 0.50 x_w26_c0 + 0.18 x_w27_c0 + 0.12 x_w28_c0 + 0.22 x_w29_c0 + 0.17 x_w30_c0 + 0.46 x_w31_c0 + 0.31 x_w32_c0 + 0.46 x_w33_c0 + 0.33 x_w34_c0 + 0.39 x_w35_c0 + 0.21 x_w36_c0 + 0.10 x_w37_c0 + 0.46 x_w38_c0 + 0.29 x_w39_c0 + 0.36 x_w40_c0 + 0.16 x_w41_c0 + 0.24 x_w42_c0 + 0.15 x_w43_c0 + 0.36 x_w44_c0 + 0.18 x_w45_c0 + 0.36 x_w46_c0 + 0.37 x_w47_c0 + 0.11 x_w48_c0 + 0.39 x_w49_c0 + 0.47 x_w50_c0 + 0.24 x_w51_c0 + 0.13 x_w52_c0 + 0.41 x_w53_c0 + 0.32 x_w54_c0 + 0.43 x_w55_c0 + 0.39 x_w56_c0 + 0.11 x_w57_c0 + 0.17 x_w58_c0 + 0.24 x_w59_c0 + 0.48 x_w60_c0 + 0.36 x_w61_c0 + 0.42 x_w62_c0 + 0.44 x_w63_c0 + 0.11 x_w64_c0 + 0.48 x_w65_c0 + 0.20 x_w66_c0 + 0.15 x_w67_c0 + 0.34 x_w68_c0 + 0.14 x_w69_c0 + 0.50 x_w70_c0 + 0.33 x_w71_c0 + 0.38 x_w72_c0 + 0.47 x_w73_c0 + 0.19 x_w74_c0 + 0.49 x_w75_c0 + 0.48 x_w76_c0 + 0.49 x_w77_c0 + 0.20 x_w78_c0 + 0.16 x_w79_c0 + 0.28 x_w80_c0 + 0.48 x_w81_c0 + 0.35 x_w82_c0 + 0.27 x_w83_c0 + 0.13 x_w84_c0 + 0.14 x_w85_c0 + 0.24 x_w86_c0 + 0.25 x_w87_c0 + 0.27 x_w88_c0 + 0.43 x_w89_c0 + 0.39 x_w90_c0 + 0.20 x_w91_c0 + 0.50 x_w92_c0 + 0.27 x_w93_c0 + 0.45 x_w94_c0 + 0.47 x_w95_c0 + 0.27 x_w96_c0 + 0.23 x_w97_c0 + 0.18 x_w98_c0 + 0.45 x_w99_c0 + 0.11 x_w100_c0 + 0.29 x_w101_c0 + 0.15 x_w102_c0 + 0.30 x_w103_c0 + 0.18 x_w104_c0 + 0.46 x_w105_c0 + 0.19 x_w106_c0 + 0.13 x_w107_c0 + 0.17 x_w108_c0 + 0.14 x_w109_c0 + 0.45 x_w110_c0 + 0.25 x_w111_c0 + 0.27 x_w112_c0 + 0.48 x_w113_c0 + 0.24 x_w114_c0 + 0.20 x_w115_c0 + 0.34 x_w116_c0 + 0.33 x_w117_c0 + 0.20 x_w118_c0 + 0.38 x_w119_c0 + 0.23 x_w120_c0 + 0.30 x_w121_c0 + 0.35 x_w122_c0 + 0.12 x_w123_c0 + 0.35 x_w124_c0 + 0.37 x_w125_c0 + 0.49 x_w126_c0 + 0.25 x_w127_c0 + 0.33 x_w128_c0 + 0.13 x_w129_c0 + 0.35 x_w130_c0 + 0.15 x_w131_c0 + 0.33 x_w132_c0 + 0.41 x_w133_c0 + 0.39 x_w134_c0 + 0.35 x_w135_c0 + 0.41 x_w136_c0 + 0.46 x_w137_c0 + 0.24 x_w138_c0 + 0.48 x_w139_c0 + 0.35 x_w140_c0 + 0.45 x_w141_c0 + 0.21 x_w142_c0 + 0.43 x_w143_c0 + 0.18 x_w144_c0 + 0.48 x_w145_c0 + 0.18 x_w146_c0 + 0.22 x_w147_c0 + 0.26 x_w148_c0 + 0.42 x_w149_c0 + 0.31 x_w150_c0 + 0.20 x_w151_c0 + 0.25 x_w152_c0 + 0.34 x_w153_c0 + 0.39 x_w154_c0 + 0.26 x_w155_c0 + 0.50 x_w156_c0 + 0.39 x_w157_c0 + 0.16 x_w158_c0 + 0.47 x_w159_c0 + 0.43 x_w160_c0 + 0.18 x_w161_c0 + 0.29 x_w162_c0 + 0.47 x_w163_c0 + 0.14 x_w164_c0 + 0.32 x_w165_c0 + 0.23 x_w166_c0 + 0.15 x_w167_c0 + 0.14 x_w168_c0 + 0.19 x_w169_c0 + 0.44 x_w170_c0 + 0.23 x_w171_c0 + 0.27 x_w172_c0 + 0.15 x_w173_c0 + 0.22 x_w174_c0 + 0.19 x_w175_c0 + 0.47 x_w176_c0 + 0.47 x_w177_c0 + 0.30 x_w178_c0 + 0.25 x_w179_c0 + 0.38 x_w180_c0 + 0.20 x_w181_c0 + 0.24 x_w182_c0 + 0.50 x_w183_c0 + 0.39 x_w184_c0 + 0.24 x_w185_c0 + 0.21 x_w186_c0 + 0.24 x_w187_c0 + 0.37 x_w188_c0 + 0.31 x_w189_c0 + 0.48 x_w190_c0 + 0.33 x_w191_c0 + 0.13 x_w192_c0 + 0.25 x_w193_c0 + 0.34 x_w194_c0 + 0.49 x_w195_c0 + 0.19 x_w196_c0 + 0.45 x_w197_c0 + 0.43 x_w198_c0 + 0.30 x_w199_c0 + 0.43 x_w200_c0 + 0.31 x_w201_c0 + 0.34 x_w202_c0 + 0.34 x_w203_c0 + 0.30 x_w204_c0 + 0.43 x_w205_c0 + 0.43 x_w206_c0 + 0.46 x_w207_c0 + 0.48 x_w208_c0 + 0.47 x_w209_c0 + 0.25 x_w210_c0 + 0.47 x_w211_c0 + 0.42 x_w212_c0 + 0.27 x_w213_c0 + 0.24 x_w214_c0 + 0.11 x_w215_c0 + 0.20 x_w216_c0 + 0.27 x_w217_c0 + 0.32 x_w218_c0 + 0.44 x_w219_c0 + 0.33 x_w220_c0 + 0.13 x_w221_c0 + 0.14 x_w222_c0 + 0.16 x_w223_c0 + 0.15 x_w224_c0 + 0.48 x_w225_c0 + 0.42 x_w226_c0 + 0.27 x_w227_c0 + 0.24 x_w228_c0 + 0.21 x_w229_c0 + 0.29 x_w230_c0 + 0.48 x_w231_c0 + 0.37 x_w232_c0 + 0.38 x_w233_c0 + 0.48 x_w234_c0 + 0.45 x_w235_c0 + 0.13 x_w236_c0 + 0.30 x_w237_c0 + 0.31 x_w238_c0 + 0.12 x_w239_c0 + 0.40 x_w240_c0 + 0.31 x_w241_c0 + 0.18 x_w242_c0 + 0.45 x_w243_c0 + 0.35 x_w244_c0 + 0.13 x_w245_c0 + 0.42 x_w246_c0 + 0.25 x_w247_c0 + 0.16 x_w248_c0 + 0.11 x_w249_c0 <= 250

Generals
  x_w0_c0
  x_w0_c1
  x_w0_c2
  x_w0_c3
  x_w0_c4
  x_w0_c5
  x_w0_c6
  x_w0_c7
  x_w0_c8
  x_w0_c9
  x_w0_c10
  x_w0_c11
  x_w0_c12
  x_w0_c13
  x_w0_c14
  x_w0_c15
  x_w0_c16
  x_w0_c17
  x_w0_c18
  x_w0_c19
  x_w0_c20
  x_w0_c21
  x_w0_c22
  x_w0_c23
  x_w0_c24
  x_w1_c0
  x_w1_c1
  x_w1_c2
  x_w1_c3
  x_w1_c4
  x_w1_c5
  x_w1_c6
  x_w1_c7
  x_w1_c8
  x_w1_c9
  x_w1_c10
  x_w1_c11
  x_w1_c12
  x_w1_c13
  x_w1_c14
  x_w1_c15
  x_w1_c16
  x_w1_c17
  x_w1_c18
  x_w1_c19
  x_w1_c20
  x_w1_c21
  x_w1_c22
  x_w1_c23
  x_w1_c24
  x_w2_c0
  x_w2_c1
  x_w2_c2
  x_w2_c3
  x_w2_c4
  x_w2_c5
  x_w2_c6
  x_w2_c7
  x_w2_c8
  x_w2_c9
  x_w2_c10
  x_w2_c11
  x_w2_c12
  x_w2_c13
  x_w2_c14
  x_w2_c15
  x_w2_c16
  x_w2_c17
  x_w2_c18
  x_w2_c19
  x_w2_c20
  x_w2_c21
  x_w2_c22
  x_w2_c23
  x_w2_c24
  x_w3_c0
  x_w3_c1
  x_w3_c2
  x_w3_c3
  x_w3_c4
  x_w3_c5
  x_w3_c6
  x_w3_c7
  x_w3_c8
  x_w3_c9
  x_w3_c10
  x_w3_c11
  x_w3_c12
  x_w3_c13
  x_w3_c14
  x_w3_c15
  x_w3_c16
  x_w3_c17
  x_w3_c18
  x_w3_c19
  x_w3_c20
  x_w3_c21
  x_w3_c22
  x_w3_c23
  x_w3_c24
  x_w4_c0
  x_w4_c1
  x_w4_c2
  x_w4_c3
  x_w4_c4
  x_w4_c5
  x_w4_c6
  x_w4_c7
  x_w4_c8
  x_w4_c9
  x_w4_c10
  x_w4_c11
  x_w4_c12
  x_w4_c13
  x_w4_c14
  x_w4_c15
  x_w4_c16
  x_w4_c17
  x_w4_c18
  x_w4_c19
  x_w4_c20
  x_w4_c21
  x_w4_c22
  x_w4_c23
  x_w4_c24
  x_w5_c0
  x_w5_c1
  x_w5_c2
  x_w5_c3
  x_w5_c4
  x_w5_c5
  x_w5_c6
  x_w5_c7
  x_w5_c8
  x_w5_c9
  x_w5_c10
  x_w5_c11
  x_w5_c12
  x_w5_c13
  x_w5_c14
  x_w5_c15
  x_w5_c16
  x_w5_c17
  x_w5_c18
  x_w5_c19
  x_w5_c20
  x_w5_c21
  x_w5_c22
  x_w5_c23
  x_w5_c24
  x_w6_c0
  x_w6_c1
  x_w6_c2
  x_w6_c3
  x_w6_c4
  x_w6_c5
  x_w6_c6
  x_w6_c7
  x_w6_c8
  x_w6_c9
  x_w6_c10
  x_w6_c11
  x_w6_c12
  x_w6_c13
  x_w6_c14
  x_w6_c15
  x_w6_c16
  x_w6_c17
  x_w6_c18
  x_w6_c19
  x_w6_c20
  x_w6_c21
  x_w6_c22
  x_w6_c23
  x_w6_c24
  x_w7_c0
  x_w7_c1
  x_w7_c2
  x_w7_c3
  x_w7_c4
  x_w7_c5
  x_w7_c6
  x_w7_c7
  x_w7_c8
  x_w7_c9
  x_w7_c10
  x_w7_c11
  x_w7_c12
  x_w7_c13
  x_w7_c14
  x_w7_c15
  x_w7_c16
  x_w7_c17
  x_w7_c18
  x_w7_c19
  x_w7_c20
  x_w7_c21
  x_w7_c22
  x_w7_c23
  x_w7_c24
  x_w8_c0
  x_w8_c1
  x_w8_c2
  x_w8_c3
  x_w8_c4
  x_w8_c5
  x_w8_c6
  x_w8_c7
  x_w8_c8
  x_w8_c9
  x_w8_c10
  x_w8_c11
  x_w8_c12
  x_w8_c13
  x_w8_c14
  x_w8_c15
  x_w8_c16
  x_w8_c17
  x_w8_c18
  x_w8_c19
  x_w8_c20
  x_w8_c21
  x_w8_c22
  x_w8_c23
  x_w8_c24
  x_w9_c0
  x_w9_c1
  x_w9_c2
  x_w9_c3
  x_w9_c4
  x_w9_c5
  x_w9_c6
  x_w9_c7
  x_w9_c8
  x_w9_c9
  x_w9_c10
  x_w9_c11
  x_w9_c12
  x_w9_c13
  x_w9_c14
  x_w9_c15
  x_w9_c16
  x_w9_c17
  x_w9_c18
  x_w9_c19
  x_w9_c20
  x_w9_c21
  x_w9_c22
  x_w9_c23
  x_w9_c24
  x_w10_c0
  x_w10_c1
  x_w10_c2
  x_w10_c3
  x_w10_c4
  x_w10_c5
  x_w10_c6
  x_w10_c7
  x_w10_c8
  x_w10_c9
  x_w10_c10
  x_w10_c11
  x_w10_c12
  x_w10_c13
  x_w10_c14
  x_w10_c15
  x_w10_c16
  x_w10_c17
  x_w10_c18
  x_w10_c19
  x_w10_c20
  x_w10_c21
  x_w10_c22
  x_w10_c23
  x_w10_c24
  x_w11_c0
  x_w11_c1
  x_w11_c2
  x_w11_c3
  x_w11_c4
  x_w11_c5
  x_w11_c6
  x_w11_c7
  x_w11_c8
  x_w11_c9
  x_w11_c10
  x_w11_c11
  x_w11_c12
  x_w11_c13
  x_w11_c14
  x_w11_c15
  x_w11_c16
  x_w11_c17
  x_w11_c18
  x_w11_c19
  x_w11_c20
  x_w11_c21
  x_w11_c22
  x_w11_c23
  x_w11_c24
  x_w12_c0
  x_w12_c1
  x_w12_c2
  x_w12_c3
  x_w12_c4
  x_w12_c5
  x_w12_c6
  x_w12_c7
  x_w12_c8
  x_w12_c9
  x_w12_c10
  x_w12_c11
  x_w12_c12
  x_w12_c13
  x_w12_c14
  x_w12_c15
  x_w12_c16
  x_w12_c17
  x_w12_c18
  x_w12_c19
  x_w12_c20
  x_w12_c21
  x_w12_c22
  x_w12_c23
  x_w12_c24
  x_w13_c0
  x_w13_c1
  x_w13_c2
  x_w13_c3
  x_w13_c4
  x_w13_c5
  x_w13_c6
  x_w13_c7
  x_w13_c8
  x_w13_c9
  x_w13_c10
  x_w13_c11
  x_w13_c12
  x_w13_c13
  x_w13_c14
  x_w13_c15
  x_w13_c16
  x_w13_c17
  x_w13_c18
  x_w13_c19
  x_w13_c20
  x_w13_c21
  x_w13_c22
  x_w13_c23
  x_w13_c24
  x_w14_c0
  x_w14_c1
  x_w14_c2
  x_w14_c3
  x_w14_c4
  x_w14_c5
  x_w14_c6
  x_w14_c7
  x_w14_c8
  x_w14_c9
  x_w14_c10
  x_w14_c11
  x_w14_c12
  x_w14_c13
  x_w14_c14
  x_w14_c15
  x_w14_c16
  x_w14_c17
  x_w14_c18
  x_w14_c19
  x_w14_c20
  x_w14_c21
  x_w14_c22
  x_w14_c23
  x_w14_c24
  x_w15_c0
  x_w15_c1
  x_w15_c2
  x_w15_c3
  x_w15_c4
  x_w15_c5
  x_w15_c6
  x_w15_c7
  x_w15_c8
  x_w15_c9
  x_w15_c10
  x_w15_c11
  x_w15_c12
  x_w15_c13
  x_w15_c14
  x_w15_c15
  x_w15_c16
  x_w15_c17
  x_w15_c18
  x_w15_c19
  x_w15_c20
  x_w15_c21
  x_w15_c22
  x_w15_c23
  x_w15_c24
  x_w16_c0
  x_w16_c1
  x_w16_c2
  x_w16_c3
  x_w16_c4
  x_w16_c5
  x_w16_c6
  x_w16_c7
  x_w16_c8
  x_w16_c9
  x_w16_c10
  x_w16_c11
  x_w16_c12
  x_w16_c13
  x_w16_c14
  x_w16_c15
  x_w16_c16
  x_w16_c17
  x_w16_c18
  x_w16_c19
  x_w16_c20
  x_w16_c21
  x_w16_c22
  x_w16_c23
  x_w16_c24
  x_w17_c0
  x_w17_c1
  x_w17_c2
  x_w17_c3
  x_w17_c4
  x_w17_c5
  x_w17_c6
  x_w17_c7
  x_w17_c8
  x_w17_c9
  x_w17_c10
  x_w17_c11
  x_w17_c12
  x_w17_c13
  x_w17_c14
  x_w17_c15
  x_w17_c16
  x_w17_c17
  x_w17_c18
  x_w17_c19
  x_w17_c20
  x_w17_c21
  x_w17_c22
  x_w17_c23
  x_w17_c24
  x_w18_c0
  x_w18_c1
  x_w18_c2
  x_w18_c3
  x_w18_c4
  x_w18_c5
  x_w18_c6
  x_w18_c7
  x_w18_c8
  x_w18_c9
  x_w18_c10
  x_w18_c11
  x_w18_c12
  x_w18_c13
  x_w18_c14
  x_w18_c15
  x_w18_c16
  x_w18_c17
  x_w18_c18
  x_w18_c19
  x_w18_c20
  x_w18_c21
  x_w18_c22
  x_w18_c23
  x_w18_c24
  x_w19_c0
  x_w19_c1
  x_w19_c2
  x_w19_c3
  x_w19_c4
  x_w19_c5
  x_w19_c6
  x_w19_c7
  x_w19_c8
  x_w19_c9
  x_w19_c10
  x_w19_c11
  x_w19_c12
  x_w19_c13
  x_w19_c14
  x_w19_c15
  x_w19_c16
  x_w19_c17
  x_w19_c18
  x_w19_c19
  x_w19_c20
  x_w19_c21
  x_w19_c22
  x_w19_c23
  x_w19_c24
  x_w20_c0
  x_w20_c1
  x_w20_c2
  x_w20_c3
  x_w20_c4
  x_w20_c5
  x_w20_c6
  x_w20_c7
  x_w20_c8
  x_w20_c9
  x_w20_c10
  x_w20_c11
  x_w20_c12
  x_w20_c13
  x_w20_c14
  x_w20_c15
  x_w20_c16
  x_w20_c17
  x_w20_c18
  x_w20_c19
  x_w20_c20
  x_w20_c21
  x_w20_c22
  x_w20_c23
  x_w20_c24
  x_w21_c0
  x_w21_c1
  x_w21_c2
  x_w21_c3
  x_w21_c4
  x_w21_c5
  x_w21_c6
  x_w21_c7
  x_w21_c8
  x_w21_c9
  x_w21_c10
  x_w21_c11
  x_w21_c12
  x_w21_c13
  x_w21_c14
  x_w21_c15
  x_w21_c16
  x_w21_c17
  x_w21_c18
  x_w21_c19
  x_w21_c20
  x_w21_c21
  x_w21_c22
  x_w21_c23
  x_w21_c24
  x_w22_c0
  x_w22_c1
  x_w22_c2
  x_w22_c3
  x_w22_c4
  x_w22_c5
  x_w22_c6
  x_w22_c7
  x_w22_c8
  x_w22_c9
  x_w22_c10
  x_w22_c11
  x_w22_c12
  x_w22_c13
  x_w22_c14
  x_w22_c15
  x_w22_c16
  x_w22_c17
  x_w22_c18
  x_w22_c19
  x_w22_c20
  x_w22_c21
  x_w22_c22
  x_w22_c23
  x_w22_c24
  x_w23_c0
  x_w23_c1
  x_w23_c2
  x_w23_c3
  x_w23_c4
  x_w23_c5
  x_w23_c6
  x_w23_c7
  x_w23_c8
  x_w23_c9
  x_w23_c10
  x_w23_c11
  x_w23_c12
  x_w23_c13
  x_w23_c14
  x_w23_c15
  x_w23_c16
  x_w23_c17
  x_w23_c18
  x_w23_c19
  x_w23_c20
  x_w23_c21
  x_w23_c22
  x_w23_c23
  x_w23_c24
  x_w24_c0
  x_w24_c1
  x_w24_c2
  x_w24_c3
  x_w24_c4
  x_w24_c5
  x_w24_c6
  x_w24_c7
  x_w24_c8
  x_w24_c9
  x_w24_c10
  x_w24_c11
  x_w24_c12
  x_w24_c13
  x_w24_c14
  x_w24_c15
  x_w24_c16
  x_w24_c17
  x_w24_c18
  x_w24_c19
  x_w24_c20
  x_w24_c21
  x_w24_c22
  x_w24_c23
  x_w24_c24
  x_w25_c0
  x_w25_c1
  x_w25_c2
  x_w25_c3
  x_w25_c4
  x_w25_c5
  x_w25_c6
  x_w25_c7
  x_w25_c8
  x_w25_c9
  x_w25_c10
  x_w25_c11
  x_w25_c12
  x_w25_c13
  x_w25_c14
  x_w25_c15
  x_w25_c16
  x_w25_c17
  x_w25_c18
  x_w25_c19
  x_w25_c20
  x_w25_c21
  x_w25_c22
  x_w25_c23
  x_w25_c24
  x_w26_c0
  x_w26_c1
  x_w26_c2
  x_w26_c3
  x_w26_c4
  x_w26_c5
  x_w26_c6
  x_w26_c7
  x_w26_c8
  x_w26_c9
  x_w26_c10
  x_w26_c11
  x_w26_c12
  x_w26_c13
  x_w26_c14
  x_w26_c15
  x_w26_c16
  x_w26_c17
  x_w26_c18
  x_w26_c19
  x_w26_c20
  x_w26_c21
  x_w26_c22
  x_w26_c23
  x_w26_c24
  x_w27_c0
  x_w27_c1
  x_w27_c2
  x_w27_c3
  x_w27_c4
  x_w27_c5
  x_w27_c6
  x_w27_c7
  x_w27_c8
  x_w27_c9
  x_w27_c10
  x_w27_c11
  x_w27_c12
  x_w27_c13
  x_w27_c14
  x_w27_c15
  x_w27_c16
  x_w27_c17
  x_w27_c18
  x_w27_c19
  x_w27_c20
  x_w27_c21
  x_w27_c22
  x_w27_c23
  x_w27_c24
  x_w28_c0
  x_w28_c1
  x_w28_c2
  x_w28_c3
  x_w28_c4
  x_w28_c5
  x_w28_c6
  x_w28_c7
  x_w28_c8
  x_w28_c9
  x_w28_c10
  x_w28_c11
  x_w28_c12
  x_w28_c13
  x_w28_c14
  x_w28_c15
  x_w28_c16
  x_w28_c17
  x_w28_c18
  x_w28_c19
  x_w28_c20
  x_w28_c21
  x_w28_c22
  x_w28_c23
  x_w28_c24
  x_w29_c0
  x_w29_c1
  x_w29_c2
  x_w29_c3
  x_w29_c4
  x_w29_c5
  x_w29_c6
  x_w29_c7
  x_w29_c8
  x_w29_c9
  x_w29_c10
  x_w29_c11
  x_w29_c12
  x_w29_c13
  x_w29_c14
  x_w29_c15
  x_w29_c16
  x_w29_c17
  x_w29_c18
  x_w29_c19
  x_w29_c20
  x_w29_c21
  x_w29_c22
  x_w29_c23
  x_w29_c24
  x_w30_c0
  x_w30_c1
  x_w30_c2
  x_w30_c3
  x_w30_c4
  x_w30_c5
  x_w30_c6
  x_w30_c7
  x_w30_c8
  x_w30_c9
  x_w30_c10
  x_w30_c11
  x_w30_c12
  x_w30_c13
  x_w30_c14
  x_w30_c15
  x_w30_c16
  x_w30_c17
  x_w30_c18
  x_w30_c19
  x_w30_c20
  x_w30_c21
  x_w30_c22
  x_w30_c23
  x_w30_c24
  x_w31_c0
  x_w31_c1
  x_w31_c2
  x_w31_c3
  x_w31_c4
  x_w31_c5
  x_w31_c6
  x_w31_c7
  x_w31_c8
  x_w31_c9
  x_w31_c10
  x_w31_c11
  x_w31_c12
  x_w31_c13
  x_w31_c14
  x_w31_c15
  x_w31_c16
  x_w31_c17
  x_w31_c18
  x_w31_c19
  x_w31_c20
  x_w31_c21
  x_w31_c22
  x_w31_c23
  x_w31_c24
  x_w32_c0
  x_w32_c1
  x_w32_c2
  x_w32_c3
  x_w32_c4
  x_w32_c5
  x_w32_c6
  x_w32_c7
  x_w32_c8
  x_w32_c9
  x_w32_c10
  x_w32_c11
  x_w32_c12
  x_w32_c13
  x_w32_c14
  x_w32_c15
  x_w32_c16
  x_w32_c17
  x_w32_c18
  x_w32_c19
  x_w32_c20
  x_w32_c21
  x_w32_c22
  x_w32_c23
  x_w32_c24
  x_w33_c0
  x_w33_c1
  x_w33_c2
  x_w33_c3
  x_w33_c4
  x_w33_c5
  x_w33_c6
  x_w33_c7
  x_w33_c8
  x_w33_c9
  x_w33_c10
  x_w33_c11
  x_w33_c12
  x_w33_c13
  x_w33_c14
  x_w33_c15
  x_w33_c16
  x_w33_c17
  x_w33_c18
  x_w33_c19
  x_w33_c20
  x_w33_c21
  x_w33_c22
  x_w33_c23
  x_w33_c24
  x_w34_c0
  x_w34_c1
  x_w34_c2
  x_w34_c3
  x_w34_c4
  x_w34_c5
  x_w34_c6
  x_w34_c7
  x_w34_c8
  x_w34_c9
  x_w34_c10
  x_w34_c11
  x_w34_c12
  x_w34_c13
  x_w34_c14
  x_w34_c15
  x_w34_c16
  x_w34_c17
  x_w34_c18
  x_w34_c19
  x_w34_c20
  x_w34_c21
  x_w34_c22
  x_w34_c23
  x_w34_c24
  x_w35_c0
  x_w35_c1
  x_w35_c2
  x_w35_c3
  x_w35_c4
  x_w35_c5
  x_w35_c6
  x_w35_c7
  x_w35_c8
  x_w35_c9
  x_w35_c10
  x_w35_c11
  x_w35_c12
  x_w35_c13
  x_w35_c14
  x_w35_c15
  x_w35_c16
  x_w35_c17
  x_w35_c18
  x_w35_c19
  x_w35_c20
  x_w35_c21
  x_w35_c22
  x_w35_c23
  x_w35_c24
  x_w36_c0
  x_w36_c1
  x_w36_c2
  x_w36_c3
  x_w36_c4
  x_w36_c5
  x_w36_c6
  x_w36_c7
  x_w36_c8
  x_w36_c9
  x_w36_c10
  x_w36_c11
  x_w36_c12
  x_w36_c13
  x_w36_c14
  x_w36_c15
  x_w36_c16
  x_w36_c17
  x_w36_c18
  x_w36_c19
  x_w36_c20
  x_w36_c21
  x_w36_c22
  x_w36_c23
  x_w36_c24
  x_w37_c0
  x_w37_c1
  x_w37_c2
  x_w37_c3
  x_w37_c4
  x_w37_c5
  x_w37_c6
  x_w37_c7
  x_w37_c8
  x_w37_c9
  x_w37_c10
  x_w37_c11
  x_w37_c12
  x_w37_c13
  x_w37_c14
  x_w37_c15
  x_w37_c16
  x_w37_c17
  x_w37_c18
  x_w37_c19
  x_w37_c20
  x_w37_c21
  x_w37_c22
  x_w37_c23
  x_w37_c24
  x_w38_c0
  x_w38_c1
  x_w38_c2
  x_w38_c3
  x_w38_c4
  x_w38_c5
  x_w38_c6
  x_w38_c7
  x_w38_c8
  x_w38_c9
  x_w38_c10
  x_w38_c11
  x_w38_c12
  x_w38_c13
  x_w38_c14
  x_w38_c15
  x_w38_c16
  x_w38_c17
  x_w38_c18
  x_w38_c19
  x_w38_c20
  x_w38_c21
  x_w38_c22
  x_w38_c23
  x_w38_c24
  x_w39_c0
  x_w39_c1
  x_w39_c2
  x_w39_c3
  x_w39_c4
  x_w39_c5
  x_w39_c6
  x_w39_c7
  x_w39_c8
  x_w39_c9
  x_w39_c10
  x_w39_c11
  x_w39_c12
  x_w39_c13
  x_w39_c14
  x_w39_c15
  x_w39_c16
  x_w39_c17
  x_w39_c18
  x_w39_c19
  x_w39_c20
  x_w39_c21
  x_w39_c22
  x_w39_c23
  x_w39_c24
  x_w40_c0
  x_w40_c1
  x_w40_c2
  x_w40_c3
  x_w40_c4
  x_w40_c5
  x_w40_c6
  x_w40_c7
  x_w40_c8
  x_w40_c9
  x_w40_c10
  x_w40_c11
  x_w40_c12
  x_w40_c13
  x_w40_c14
  x_w40_c15
  x_w40_c16
  x_w40_c17
  x_w40_c18
  x_w40_c19
  x_w40_c20
  x_w40_c21
  x_w40_c22
  x_w40_c23
  x_w40_c24
  x_w41_c0
  x_w41_c1
  x_w41_c2
  x_w41_c3
  x_w41_c4
  x_w41_c5
  x_w41_c6
  x_w41_c7
  x_w41_c8
  x_w41_c9
  x_w41_c10
  x_w41_c11
  x_w41_c12
  x_w41_c13
  x_w41_c14
  x_w41_c15
  x_w41_c16
  x_w41_c17
  x_w41_c18
  x_w41_c19
  x_w41_c20
  x_w41_c21
  x_w41_c22
  x_w41_c23
  x_w41_c24
  x_w42_c0
  x_w42_c1
  x_w42_c2
  x_w42_c3
  x_w42_c4
  x_w42_c5
  x_w42_c6
  x_w42_c7
  x_w42_c8
  x_w42_c9
  x_w42_c10
  x_w42_c11
  x_w42_c12
  x_w42_c13
  x_w42_c14
  x_w42_c15
  x_w42_c16
  x_w42_c17
  x_w42_c18
  x_w42_c19
  x_w42_c20
  x_w42_c21
  x_w42_c22
  x_w42_c23
  x_w42_c24
  x_w43_c0
  x_w43_c1
  x_w43_c2
  x_w43_c3
  x_w43_c4
  x_w43_c5
  x_w43_c6
  x_w43_c7
  x_w43_c8
  x_w43_c9
  x_w43_c10
  x_w43_c11
  x_w43_c12
  x_w43_c13
  x_w43_c14
  x_w43_c15
  x_w43_c16
  x_w43_c17
  x_w43_c18
  x_w43_c19
  x_w43_c20
  x_w43_c21
  x_w43_c22
  x_w43_c23
  x_w43_c24
  x_w44_c0
  x_w44_c1
  x_w44_c2
  x_w44_c3
  x_w44_c4
  x_w44_c5
  x_w44_c6
  x_w44_c7
  x_w44_c8
  x_w44_c9
  x_w44_c10
  x_w44_c11
  x_w44_c12
  x_w44_c13
  x_w44_c14
  x_w44_c15
  x_w44_c16
  x_w44_c17
  x_w44_c18
  x_w44_c19
  x_w44_c20
  x_w44_c21
  x_w44_c22
  x_w44_c23
  x_w44_c24
  x_w45_c0
  x_w45_c1
  x_w45_c2
  x_w45_c3
  x_w45_c4
  x_w45_c5
  x_w45_c6
  x_w45_c7
  x_w45_c8
  x_w45_c9
  x_w45_c10
  x_w45_c11
  x_w45_c12
  x_w45_c13
  x_w45_c14
  x_w45_c15
  x_w45_c16
  x_w45_c17
  x_w45_c18
  x_w45_c19
  x_w45_c20
  x_w45_c21
  x_w45_c22
  x_w45_c23
  x_w45_c24
  x_w46_c0
  x_w46_c1
  x_w46_c2
  x_w46_c3
  x_w46_c4
  x_w46_c5
  x_w46_c6
  x_w46_c7
  x_w46_c8
  x_w46_c9
  x_w46_c10
  x_w46_c11
  x_w46_c12
  x_w46_c13
  x_w46_c14
  x_w46_c15
  x_w46_c16
  x_w46_c17
  x_w46_c18
  x_w46_c19
  x_w46_c20
  x_w46_c21
  x_w46_c22
  x_w46_c23
  x_w46_c24
  x_w47_c0
  x_w47_c1
  x_w47_c2
  x_w47_c3
  x_w47_c4
  x_w47_c5
  x_w47_c6
  x_w47_c7
  x_w47_c8
  x_w47_c9
  x_w47_c10
  x_w47_c11
  x_w47_c12
  x_w47_c13
  x_w47_c14
  x_w47_c15
  x_w47_c16
  x_w47_c17
  x_w47_c18
  x_w47_c19
  x_w47_c20
  x_w47_c21
  x_w47_c22
  x_w47_c23
  x_w47_c24
  x_w48_c0
  x_w48_c1
  x_w48_c2
  x_w48_c3
  x_w48_c4
  x_w48_c5
  x_w48_c6
  x_w48_c7
  x_w48_c8
  x_w48_c9
  x_w48_c10
  x_w48_c11
  x_w48_c12
  x_w48_c13
  x_w48_c14
  x_w48_c15
  x_w48_c16
  x_w48_c17
  x_w48_c18
  x_w48_c19
  x_w48_c20
  x_w48_c21
  x_w48_c22
  x_w48_c23
  x_w48_c24
  x_w49_c0
  x_w49_c1
  x_w49_c2
  x_w49_c3
  x_w49_c4
  x_w49_c5
  x_w49_c6
  x_w49_c7
  x_w49_c8
  x_w49_c9
  x_w49_c10
  x_w49_c11
  x_w49_c12
  x_w49_c13
  x_w49_c14
  x_w49_c15
  x_w49_c16
  x_w49_c17
  x_w49_c18
  x_w49_c19
  x_w49_c20
  x_w49_c21
  x_w49_c22
  x_w49_c23
  x_w49_c24
  x_w50_c0
  x_w50_c1
  x_w50_c2
  x_w50_c3
  x_w50_c4
  x_w50_c5
  x_w50_c6
  x_w50_c7
  x_w50_c8
  x_w50_c9
  x_w50_c10
  x_w50_c11
  x_w50_c12
  x_w50_c13
  x_w50_c14
  x_w50_c15
  x_w50_c16
  x_w50_c17
  x_w50_c18
  x_w50_c19
  x_w50_c20
  x_w50_c21
  x_w50_c22
  x_w50_c23
  x_w50_c24
  x_w51_c0
  x_w51_c1
  x_w51_c2
  x_w51_c3
  x_w51_c4
  x_w51_c5
  x_w51_c6
  x_w51_c7
  x_w51_c8
  x_w51_c9
  x_w51_c10
  x_w51_c11
  x_w51_c12
  x_w51_c13
  x_w51_c14
  x_w51_c15
  x_w51_c16
  x_w51_c17
  x_w51_c18
  x_w51_c19
  x_w51_c20
  x_w51_c21
  x_w51_c22
  x_w51_c23
  x_w51_c24
  x_w52_c0
  x_w52_c1
  x_w52_c2
  x_w52_c3
  x_w52_c4
  x_w52_c5
  x_w52_c6
  x_w52_c7
  x_w52_c8
  x_w52_c9
  x_w52_c10
  x_w52_c11
  x_w52_c12
  x_w52_c13
  x_w52_c14
  x_w52_c15
  x_w52_c16
  x_w52_c17
  x_w52_c18
  x_w52_c19
  x_w52_c20
  x_w52_c21
  x_w52_c22
  x_w52_c23
  x_w52_c24
  x_w53_c0
  x_w53_c1
  x_w53_c2
  x_w53_c3
  x_w53_c4
  x_w53_c5
  x_w53_c6
  x_w53_c7
  x_w53_c8
  x_w53_c9
  x_w53_c10
  x_w53_c11
  x_w53_c12
  x_w53_c13
  x_w53_c14
  x_w53_c15
  x_w53_c16
  x_w53_c17
  x_w53_c18
  x_w53_c19
  x_w53_c20
  x_w53_c21
  x_w53_c22
  x_w53_c23
  x_w53_c24
  x_w54_c0
  x_w54_c1
  x_w54_c2
  x_w54_c3
  x_w54_c4
  x_w54_c5
  x_w54_c6
  x_w54_c7
  x_w54_c8
  x_w54_c9
  x_w54_c10
  x_w54_c11
  x_w54_c12
  x_w54_c13
  x_w54_c14
  x_w54_c15
  x_w54_c16
  x_w54_c17
  x_w54_c18
  x_w54_c19
  x_w54_c20
  x_w54_c21
  x_w54_c22
  x_w54_c23
  x_w54_c24
  x_w55_c0
  x_w55_c1
  x_w55_c2
  x_w55_c3
  x_w55_c4
  x_w55_c5
  x_w55_c6
  x_w55_c7
  x_w55_c8
  x_w55_c9
  x_w55_c10
  x_w55_c11
  x_w55_c12
  x_w55_c13
  x_w55_c14
  x_w55_c15
  x_w55_c16
  x_w55_c17
  x_w55_c18
  x_w55_c19
  x_w55_c20
  x_w55_c21
  x_w55_c22
  x_w55_c23
  x_w55_c24
  x_w56_c0
  x_w56_c1
  x_w56_c2
  x_w56_c3
  x_w56_c4
  x_w56_c5
  x_w56_c6
  x_w56_c7
  x_w56_c8
  x_w56_c9
  x_w56_c10
  x_w56_c11
  x_w56_c12
  x_w56_c13
  x_w56_c14
  x_w56_c15
  x_w56_c16
  x_w56_c17
  x_w56_c18
  x_w56_c19
  x_w56_c20
  x_w56_c21
  x_w56_c22
  x_w56_c23
  x_w56_c24
  x_w57_c0
  x_w57_c1
  x_w57_c2
  x_w57_c3
  x_w57_c4
  x_w57_c5
  x_w57_c6
  x_w57_c7
  x_w57_c8
  x_w57_c9
  x_w57_c10
  x_w57_c11
  x_w57_c12
  x_w57_c13
  x_w57_c14
  x_w57_c15
  x_w57_c16
  x_w57_c17
  x_w57_c18
  x_w57_c19
  x_w57_c20
  x_w57_c21
  x_w57_c22
  x_w57_c23
  x_w57_c24
  x_w58_c0
  x_w58_c1
  x_w58_c2
  x_w58_c3
  x_w58_c4
  x_w58_c5
  x_w58_c6
  x_w58_c7
  x_w58_c8
  x_w58_c9
  x_w58_c10
  x_w58_c11
  x_w58_c12
  x_w58_c13
  x_w58_c14
  x_w58_c15
  x_w58_c16
  x_w58_c17
  x_w58_c18
  x_w58_c19
  x_w58_c20
  x_w58_c21
  x_w58_c22
  x_w58_c23
  x_w58_c24
  x_w59_c0
  x_w59_c1
  x_w59_c2
  x_w59_c3
  x_w59_c4
  x_w59_c5
  x_w59_c6
  x_w59_c7
  x_w59_c8
  x_w59_c9
  x_w59_c10
  x_w59_c11
  x_w59_c12
  x_w59_c13
  x_w59_c14
  x_w59_c15
  x_w59_c16
  x_w59_c17
  x_w59_c18
  x_w59_c19
  x_w59_c20
  x_w59_c21
  x_w59_c22
  x_w59_c23
  x_w59_c24
  x_w60_c0
  x_w60_c1
  x_w60_c2
  x_w60_c3
  x_w60_c4
  x_w60_c5
  x_w60_c6
  x_w60_c7
  x_w60_c8
  x_w60_c9
  x_w60_c10
  x_w60_c11
  x_w60_c12
  x_w60_c13
  x_w60_c14
  x_w60_c15
  x_w60_c16
  x_w60_c17
  x_w60_c18
  x_w60_c19
  x_w60_c20
  x_w60_c21
  x_w60_c22
  x_w60_c23
  x_w60_c24
  x_w61_c0
  x_w61_c1
  x_w61_c2
  x_w61_c3
  x_w61_c4
  x_w61_c5
  x_w61_c6
  x_w61_c7
  x_w61_c8
  x_w61_c9
  x_w61_c10
  x_w61_c11
  x_w61_c12
  x_w61_c13
  x_w61_c14
  x_w61_c15
  x_w61_c16
  x_w61_c17
  x_w61_c18
  x_w61_c19
  x_w61_c20
  x_w61_c21
  x_w61_c22
  x_w61_c23
  x_w61_c24
  x_w62_c0
  x_w62_c1
  x_w62_c2
  x_w62_c3
  x_w62_c4
  x_w62_c5
  x_w62_c6
  x_w62_c7
  x_w62_c8
  x_w62_c9
  x_w62_c10
  x_w62_c11
  x_w62_c12
  x_w62_c13
  x_w62_c14
  x_w62_c15
  x_w62_c16
  x_w62_c17
  x_w62_c18
  x_w62_c19
  x_w62_c20
  x_w62_c21
  x_w62_c22
  x_w62_c23
  x_w62_c24
  x_w63_c0
  x_w63_c1
  x_w63_c2
  x_w63_c3
  x_w63_c4
  x_w63_c5
  x_w63_c6
  x_w63_c7
  x_w63_c8
  x_w63_c9
  x_w63_c10
  x_w63_c11
  x_w63_c12
  x_w63_c13
  x_w63_c14
  x_w63_c15
  x_w63_c16
  x_w63_c17
  x_w63_c18
  x_w63_c19
  x_w63_c20
  x_w63_c21
  x_w63_c22
  x_w63_c23
  x_w63_c24
  x_w64_c0
  x_w64_c1
  x_w64_c2
  x_w64_c3
  x_w64_c4
  x_w64_c5
  x_w64_c6
  x_w64_c7
  x_w64_c8
  x_w64_c9
  x_w64_c10
  x_w64_c11
  x_w64_c12
  x_w64_c13
  x_w64_c14
  x_w64_c15
  x_w64_c16
  x_w64_c17
  x_w64_c18
  x_w64_c19
  x_w64_c20
  x_w64_c21
  x_w64_c22
  x_w64_c23
  x_w64_c24
  x_w65_c0
  x_w65_c1
  x_w65_c2
  x_w65_c3
  x_w65_c4
  x_w65_c5
  x_w65_c6
  x_w65_c7
  x_w65_c8
  x_w65_c9
  x_w65_c10
  x_w65_c11
  x_w65_c12
  x_w65_c13
  x_w65_c14
  x_w65_c15
  x_w65_c16
  x_w65_c17
  x_w65_c18
  x_w65_c19
  x_w65_c20
  x_w65_c21
  x_w65_c22
  x_w65_c23
  x_w65_c24
  x_w66_c0
  x_w66_c1
  x_w66_c2
  x_w66_c3
  x_w66_c4
  x_w66_c5
  x_w66_c6
  x_w66_c7
  x_w66_c8
  x_w66_c9
  x_w66_c10
  x_w66_c11
  x_w66_c12
  x_w66_c13
  x_w66_c14
  x_w66_c15
  x_w66_c16
  x_w66_c17
  x_w66_c18
  x_w66_c19
  x_w66_c20
  x_w66_c21
  x_w66_c22
  x_w66_c23
  x_w66_c24
  x_w67_c0
  x_w67_c1
  x_w67_c2
  x_w67_c3
  x_w67_c4
  x_w67_c5
  x_w67_c6
  x_w67_c7
  x_w67_c8
  x_w67_c9
  x_w67_c10
  x_w67_c11
  x_w67_c12
  x_w67_c13
  x_w67_c14
  x_w67_c15
  x_w67_c16
  x_w67_c17
  x_w67_c18
  x_w67_c19
  x_w67_c20
  x_w67_c21
  x_w67_c22
  x_w67_c23
  x_w67_c24
  x_w68_c0
  x_w68_c1
  x_w68_c2
  x_w68_c3
  x_w68_c4
  x_w68_c5
  x_w68_c6
  x_w68_c7
  x_w68_c8
  x_w68_c9
  x_w68_c10
  x_w68_c11
  x_w68_c12
  x_w68_c13
  x_w68_c14
  x_w68_c15
  x_w68_c16
  x_w68_c17
  x_w68_c18
  x_w68_c19
  x_w68_c20
  x_w68_c21
  x_w68_c22
  x_w68_c23
  x_w68_c24
  x_w69_c0
  x_w69_c1
  x_w69_c2
  x_w69_c3
  x_w69_c4
  x_w69_c5
  x_w69_c6
  x_w69_c7
  x_w69_c8
  x_w69_c9
  x_w69_c10
  x_w69_c11
  x_w69_c12
  x_w69_c13
  x_w69_c14
  x_w69_c15
  x_w69_c16
  x_w69_c17
  x_w69_c18
  x_w69_c19
  x_w69_c20
  x_w69_c21
  x_w69_c22
  x_w69_c23
  x_w69_c24
  x_w70_c0
  x_w70_c1
  x_w70_c2
  x_w70_c3
  x_w70_c4
  x_w70_c5
  x_w70_c6
  x_w70_c7
  x_w70_c8
  x_w70_c9
  x_w70_c10
  x_w70_c11
  x_w70_c12
  x_w70_c13
  x_w70_c14
  x_w70_c15
  x_w70_c16
  x_w70_c17
  x_w70_c18
  x_w70_c19
  x_w70_c20
  x_w70_c21
  x_w70_c22
  x_w70_c23
  x_w70_c24
  x_w71_c0
  x_w71_c1
  x_w71_c2
  x_w71_c3
  x_w71_c4
  x_w71_c5
  x_w71_c6
  x_w71_c7
  x_w71_c8
  x_w71_c9
  x_w71_c10
  x_w71_c11
  x_w71_c12
  x_w71_c13
  x_w71_c14
  x_w71_c15
  x_w71_c16
  x_w71_c17
  x_w71_c18
  x_w71_c19
  x_w71_c20
  x_w71_c21
  x_w71_c22
  x_w71_c23
  x_w71_c24
  x_w72_c0
  x_w72_c1
  x_w72_c2
  x_w72_c3
  x_w72_c4
  x_w72_c5
  x_w72_c6
  x_w72_c7
  x_w72_c8
  x_w72_c9
  x_w72_c10
  x_w72_c11
  x_w72_c12
  x_w72_c13
  x_w72_c14
  x_w72_c15
  x_w72_c16
  x_w72_c17
  x_w72_c18
  x_w72_c19
  x_w72_c20
  x_w72_c21
  x_w72_c22
  x_w72_c23
  x_w72_c24
  x_w73_c0
  x_w73_c1
  x_w73_c2
  x_w73_c3
  x_w73_c4
  x_w73_c5
  x_w73_c6
  x_w73_c7
  x_w73_c8
  x_w73_c9
  x_w73_c10
  x_w73_c11
  x_w73_c12
  x_w73_c13
  x_w73_c14
  x_w73_c15
  x_w73_c16
  x_w73_c17
  x_w73_c18
  x_w73_c19
  x_w73_c20
  x_w73_c21
  x_w73_c22
  x_w73_c23
  x_w73_c24
  x_w74_c0
  x_w74_c1
  x_w74_c2
  x_w74_c3
  x_w74_c4
  x_w74_c5
  x_w74_c6
  x_w74_c7
  x_w74_c8
  x_w74_c9
  x_w74_c10
  x_w74_c11
  x_w74_c12
  x_w74_c13
  x_w74_c14
  x_w74_c15
  x_w74_c16
  x_w74_c17
  x_w74_c18
  x_w74_c19
  x_w74_c20
  x_w74_c21
  x_w74_c22
  x_w74_c23
  x_w74_c24
  x_w75_c0
  x_w75_c1
  x_w75_c2
  x_w75_c3
  x_w75_c4
  x_w75_c5
  x_w75_c6
  x_w75_c7
  x_w75_c8
  x_w75_c9
  x_w75_c10
  x_w75_c11
  x_w75_c12
  x_w75_c13
  x_w75_c14
  x_w75_c15
  x_w75_c16
  x_w75_c17
  x_w75_c18
  x_w75_c19
  x_w75_c20
  x_w75_c21
  x_w75_c22
  x_w75_c23
  x_w75_c24
  x_w76_c0
  x_w76_c1
  x_w76_c2
  x_w76_c3
  x_w76_c4
  x_w76_c5
  x_w76_c6
  x_w76_c7
  x_w76_c8
  x_w76_c9
  x_w76_c10
  x_w76_c11
  x_w76_c12
  x_w76_c13
  x_w76_c14
  x_w76_c15
  x_w76_c16
  x_w76_c17
  x_w76_c18
  x_w76_c19
  x_w76_c20
  x_w76_c21
  x_w76_c22
  x_w76_c23
  x_w76_c24
  x_w77_c0
  x_w77_c1
  x_w77_c2
  x_w77_c3
  x_w77_c4
  x_w77_c5
  x_w77_c6
  x_w77_c7
  x_w77_c8
  x_w77_c9
  x_w77_c10
  x_w77_c11
  x_w77_c12
  x_w77_c13
  x_w77_c14
  x_w77_c15
  x_w77_c16
  x_w77_c17
  x_w77_c18
  x_w77_c19
  x_w77_c20
  x_w77_c21
  x_w77_c22
  x_w77_c23
  x_w77_c24
  x_w78_c0
  x_w78_c1
  x_w78_c2
  x_w78_c3
  x_w78_c4
  x_w78_c5
  x_w78_c6
  x_w78_c7
  x_w78_c8
  x_w78_c9
  x_w78_c10
  x_w78_c11
  x_w78_c12
  x_w78_c13
  x_w78_c14
  x_w78_c15
  x_w78_c16
  x_w78_c17
  x_w78_c18
  x_w78_c19
  x_w78_c20
  x_w78_c21
  x_w78_c22
  x_w78_c23
  x_w78_c24
  x_w79_c0
  x_w79_c1
  x_w79_c2
  x_w79_c3
  x_w79_c4
  x_w79_c5
  x_w79_c6
  x_w79_c7
  x_w79_c8
  x_w79_c9
  x_w79_c10
  x_w79_c11
  x_w79_c12
  x_w79_c13
  x_w79_c14
  x_w79_c15
  x_w79_c16
  x_w79_c17
  x_w79_c18
  x_w79_c19
  x_w79_c20
  x_w79_c21
  x_w79_c22
  x_w79_c23
  x_w79_c24
  x_w80_c0
  x_w80_c1
  x_w80_c2
  x_w80_c3
  x_w80_c4
  x_w80_c5
  x_w80_c6
  x_w80_c7
  x_w80_c8
  x_w80_c9
  x_w80_c10
  x_w80_c11
  x_w80_c12
  x_w80_c13
  x_w80_c14
  x_w80_c15
  x_w80_c16
  x_w80_c17
  x_w80_c18
  x_w80_c19
  x_w80_c20
  x_w80_c21
  x_w80_c22
  x_w80_c23
  x_w80_c24
  x_w81_c0
  x_w81_c1
  x_w81_c2
  x_w81_c3
  x_w81_c4
  x_w81_c5
  x_w81_c6
  x_w81_c7
  x_w81_c8
  x_w81_c9
  x_w81_c10
  x_w81_c11
  x_w81_c12
  x_w81_c13
  x_w81_c14
  x_w81_c15
  x_w81_c16
  x_w81_c17
  x_w81_c18
  x_w81_c19
  x_w81_c20
  x_w81_c21
  x_w81_c22
  x_w81_c23
  x_w81_c24
  x_w82_c0
  x_w82_c1
  x_w82_c2
  x_w82_c3
  x_w82_c4
  x_w82_c5
  x_w82_c6
  x_w82_c7
  x_w82_c8
  x_w82_c9
  x_w82_c10
  x_w82_c11
  x_w82_c12
  x_w82_c13
  x_w82_c14
  x_w82_c15
  x_w82_c16
  x_w82_c17
  x_w82_c18
  x_w82_c19
  x_w82_c20
  x_w82_c21
  x_w82_c22
  x_w82_c23
  x_w82_c24
  x_w83_c0
  x_w83_c1
  x_w83_c2
  x_w83_c3
  x_w83_c4
  x_w83_c5
  x_w83_c6
  x_w83_c7
  x_w83_c8
  x_w83_c9
  x_w83_c10
  x_w83_c11
  x_w83_c12
  x_w83_c13
  x_w83_c14
  x_w83_c15
  x_w83_c16
  x_w83_c17
  x_w83_c18
  x_w83_c19
  x_w83_c20
  x_w83_c21
  x_w83_c22
  x_w83_c23
  x_w83_c24
  x_w84_c0
  x_w84_c1
  x_w84_c2
  x_w84_c3
  x_w84_c4
  x_w84_c5
  x_w84_c6
  x_w84_c7
  x_w84_c8
  x_w84_c9
  x_w84_c10
  x_w84_c11
  x_w84_c12
  x_w84_c13
  x_w84_c14
  x_w84_c15
  x_w84_c16
  x_w84_c17
  x_w84_c18
  x_w84_c19
  x_w84_c20
  x_w84_c21
  x_w84_c22
  x_w84_c23
  x_w84_c24
  x_w85_c0
  x_w85_c1
  x_w85_c2
  x_w85_c3
  x_w85_c4
  x_w85_c5
  x_w85_c6
  x_w85_c7
  x_w85_c8
  x_w85_c9
  x_w85_c10
  x_w85_c11
  x_w85_c12
  x_w85_c13
  x_w85_c14
  x_w85_c15
  x_w85_c16
  x_w85_c17
  x_w85_c18
  x_w85_c19
  x_w85_c20
  x_w85_c21
  x_w85_c22
  x_w85_c23
  x_w85_c24
  x_w86_c0
  x_w86_c1
  x_w86_c2
  x_w86_c3
  x_w86_c4
  x_w86_c5
  x_w86_c6
  x_w86_c7
  x_w86_c8
  x_w86_c9
  x_w86_c10
  x_w86_c11
  x_w86_c12
  x_w86_c13
  x_w86_c14
  x_w86_c15
  x_w86_c16
  x_w86_c17
  x_w86_c18
  x_w86_c19
  x_w86_c20
  x_w86_c21
  x_w86_c22
  x_w86_c23
  x_w86_c24
  x_w87_c0
  x_w87_c1
  x_w87_c2
  x_w87_c3
  x_w87_c4
  x_w87_c5
  x_w87_c6
  x_w87_c7
  x_w87_c8
  x_w87_c9
  x_w87_c10
  x_w87_c11
  x_w87_c12
  x_w87_c13
  x_w87_c14
  x_w87_c15
  x_w87_c16
  x_w87_c17
  x_w87_c18
  x_w87_c19
  x_w87_c20
  x_w87_c21
  x_w87_c22
  x_w87_c23
  x_w87_c24
  x_w88_c0
  x_w88_c1
  x_w88_c2
  x_w88_c3
  x_w88_c4
  x_w88_c5
  x_w88_c6
  x_w88_c7
  x_w88_c8
  x_w88_c9
  x_w88_c10
  x_w88_c11
  x_w88_c12
  x_w88_c13
  x_w88_c14
  x_w88_c15
  x_w88_c16
  x_w88_c17
  x_w88_c18
  x_w88_c19
  x_w88_c20
  x_w88_c21
  x_w88_c22
  x_w88_c23
  x_w88_c24
  x_w89_c0
  x_w89_c1
  x_w89_c2
  x_w89_c3
  x_w89_c4
  x_w89_c5
  x_w89_c6
  x_w89_c7
  x_w89_c8
  x_w89_c9
  x_w89_c10
  x_w89_c11
  x_w89_c12
  x_w89_c13
  x_w89_c14
  x_w89_c15
  x_w89_c16
  x_w89_c17
  x_w89_c18
  x_w89_c19
  x_w89_c20
  x_w89_c21
  x_w89_c22
  x_w89_c23
  x_w89_c24
  x_w90_c0
  x_w90_c1
  x_w90_c2
  x_w90_c3
  x_w90_c4
  x_w90_c5
  x_w90_c6
  x_w90_c7
  x_w90_c8
  x_w90_c9
  x_w90_c10
  x_w90_c11
  x_w90_c12
  x_w90_c13
  x_w90_c14
  x_w90_c15
  x_w90_c16
  x_w90_c17
  x_w90_c18
  x_w90_c19
  x_w90_c20
  x_w90_c21
  x_w90_c22
  x_w90_c23
  x_w90_c24
  x_w91_c0
  x_w91_c1
  x_w91_c2
  x_w91_c3
  x_w91_c4
  x_w91_c5
  x_w91_c6
  x_w91_c7
  x_w91_c8
  x_w91_c9
  x_w91_c10
  x_w91_c11
  x_w91_c12
  x_w91_c13
  x_w91_c14
  x_w91_c15
  x_w91_c16
  x_w91_c17
  x_w91_c18
  x_w91_c19
  x_w91_c20
  x_w91_c21
  x_w91_c22
  x_w91_c23
  x_w91_c24
  x_w92_c0
  x_w92_c1
  x_w92_c2
  x_w92_c3
  x_w92_c4
  x_w92_c5
  x_w92_c6
  x_w92_c7
  x_w92_c8
  x_w92_c9
  x_w92_c10
  x_w92_c11
  x_w92_c12
  x_w92_c13
  x_w92_c14
  x_w92_c15
  x_w92_c16
  x_w92_c17
  x_w92_c18
  x_w92_c19
  x_w92_c20
  x_w92_c21
  x_w92_c22
  x_w92_c23
  x_w92_c24
  x_w93_c0
  x_w93_c1
  x_w93_c2
  x_w93_c3
  x_w93_c4
  x_w93_c5
  x_w93_c6
  x_w93_c7
  x_w93_c8
  x_w93_c9
  x_w93_c10
  x_w93_c11
  x_w93_c12
  x_w93_c13
  x_w93_c14
  x_w93_c15
  x_w93_c16
  x_w93_c17
  x_w93_c18
  x_w93_c19
  x_w93_c20
  x_w93_c21
  x_w93_c22
  x_w93_c23
  x_w93_c24
  x_w94_c0
  x_w94_c1
  x_w94_c2
  x_w94_c3
  x_w94_c4
  x_w94_c5
  x_w94_c6
  x_w94_c7
  x_w94_c8
  x_w94_c9
  x_w94_c10
  x_w94_c11
  x_w94_c12
  x_w94_c13
  x_w94_c14
  x_w94_c15
  x_w94_c16
  x_w94_c17
  x_w94_c18
  x_w94_c19
  x_w94_c20
  x_w94_c21
  x_w94_c22
  x_w94_c23
  x_w94_c24
  x_w95_c0
  x_w95_c1
  x_w95_c2
  x_w95_c3
  x_w95_c4
  x_w95_c5
  x_w95_c6
  x_w95_c7
  x_w95_c8
  x_w95_c9
  x_w95_c10
  x_w95_c11
  x_w95_c12
  x_w95_c13
  x_w95_c14
  x_w95_c15
  x_w95_c16
  x_w95_c17
  x_w95_c18
  x_w95_c19
  x_w95_c20
  x_w95_c21
  x_w95_c22
  x_w95_c23
  x_w95_c24
  x_w96_c0
  x_w96_c1
  x_w96_c2
  x_w96_c3
  x_w96_c4
  x_w96_c5
  x_w96_c6
  x_w96_c7
  x_w96_c8
  x_w96_c9
  x_w96_c10
  x_w96_c11
  x_w96_c12
  x_w96_c13
  x_w96_c14
  x_w96_c15
  x_w96_c16
  x_w96_c17
  x_w96_c18
  x_w96_c19
  x_w96_c20
  x_w96_c21
  x_w96_c22
  x_w96_c23
  x_w96_c24
  x_w97_c0
  x_w97_c1
  x_w97_c2
  x_w97_c3
  x_w97_c4
  x_w97_c5
  x_w97_c6
  x_w97_c7
  x_w97_c8
  x_w97_c9
  x_w97_c10
  x_w97_c11
  x_w97_c12
  x_w97_c13
  x_w97_c14
  x_w97_c15
  x_w97_c16
  x_w97_c17
  x_w97_c18
  x_w97_c19
  x_w97_c20
  x_w97_c21
  x_w97_c22
  x_w97_c23
  x_w97_c24
  x_w98_c0
  x_w98_c1
  x_w98_c2
  x_w98_c3
  x_w98_c4
  x_w98_c5
  x_w98_c6
  x_w98_c7
  x_w98_c8
  x_w98_c9
  x_w98_c10
  x_w98_c11
  x_w98_c12
  x_w98_c13
  x_w98_c14
  x_w98_c15
  x_w98_c16
  x_w98_c17
  x_w98_c18
  x_w98_c19
  x_w98_c20
  x_w98_c21
  x_w98_c22
  x_w98_c23
  x_w98_c24
  x_w99_c0
  x_w99_c1
  x_w99_c2
  x_w99_c3
  x_w99_c4
  x_w99_c5
  x_w99_c6
  x_w99_c7
  x_w99_c8
  x_w99_c9
  x_w99_c10
  x_w99_c11
  x_w99_c12
  x_w99_c13
  x_w99_c14
  x_w99_c15
  x_w99_c16
  x_w99_c17
  x_w99_c18
  x_w99_c19
  x_w99_c20
  x_w99_c21
  x_w99_c22
  x_w99_c23
  x_w99_c24
  x_w100_c0
  x_w100_c1
  x_w100_c2
  x_w100_c3
  x_w100_c4
  x_w100_c5
  x_w100_c6
  x_w100_c7
  x_w100_c8
  x_w100_c9
  x_w100_c10
  x_w100_c11
  x_w100_c12
  x_w100_c13
  x_w100_c14
  x_w100_c15
  x_w100_c16
  x_w100_c17
  x_w100_c18
  x_w100_c19
  x_w100_c20
  x_w100_c21
  x_w100_c22
  x_w100_c23
  x_w100_c24
  x_w101_c0
  x_w101_c1
  x_w101_c2
  x_w101_c3
  x_w101_c4
  x_w101_c5
  x_w101_c6
  x_w101_c7
  x_w101_c8
  x_w101_c9
  x_w101_c10
  x_w101_c11
  x_w101_c12
  x_w101_c13
  x_w101_c14
  x_w101_c15
  x_w101_c16
  x_w101_c17
  x_w101_c18
  x_w101_c19
  x_w101_c20
  x_w101_c21
  x_w101_c22
  x_w101_c23
  x_w101_c24
  x_w102_c0
  x_w102_c1
  x_w102_c2
  x_w102_c3
  x_w102_c4
  x_w102_c5
  x_w102_c6
  x_w102_c7
  x_w102_c8
  x_w102_c9
  x_w102_c10
  x_w102_c11
  x_w102_c12
  x_w102_c13
  x_w102_c14
  x_w102_c15
  x_w102_c16
  x_w102_c17
  x_w102_c18
  x_w102_c19
  x_w102_c20
  x_w102_c21
  x_w102_c22
  x_w102_c23
  x_w102_c24
  x_w103_c0
  x_w103_c1
  x_w103_c2
  x_w103_c3
  x_w103_c4
  x_w103_c5
  x_w103_c6
  x_w103_c7
  x_w103_c8
  x_w103_c9
  x_w103_c10
  x_w103_c11
  x_w103_c12
  x_w103_c13
  x_w103_c14
  x_w103_c15
  x_w103_c16
  x_w103_c17
  x_w103_c18
  x_w103_c19
  x_w103_c20
  x_w103_c21
  x_w103_c22
  x_w103_c23
  x_w103_c24
  x_w104_c0
  x_w104_c1
  x_w104_c2
  x_w104_c3
  x_w104_c4
  x_w104_c5
  x_w104_c6
  x_w104_c7
  x_w104_c8
  x_w104_c9
  x_w104_c10
  x_w104_c11
  x_w104_c12
  x_w104_c13
  x_w104_c14
  x_w104_c15
  x_w104_c16
  x_w104_c17
  x_w104_c18
  x_w104_c19
  x_w104_c20
  x_w104_c21
  x_w104_c22
  x_w104_c23
  x_w104_c24
  x_w105_c0
  x_w105_c1
  x_w105_c2
  x_w105_c3
  x_w105_c4
  x_w105_c5
  x_w105_c6
  x_w105_c7
  x_w105_c8
  x_w105_c9
  x_w105_c10
  x_w105_c11
  x_w105_c12
  x_w105_c13
  x_w105_c14
  x_w105_c15
  x_w105_c16
  x_w105_c17
  x_w105_c18
  x_w105_c19
  x_w105_c20
  x_w105_c21
  x_w105_c22
  x_w105_c23
  x_w105_c24
  x_w106_c0
  x_w106_c1
  x_w106_c2
  x_w106_c3
  x_w106_c4
  x_w106_c5
  x_w106_c6
  x_w106_c7
  x_w106_c8
  x_w106_c9
  x_w106_c10
  x_w106_c11
  x_w106_c12
  x_w106_c13
  x_w106_c14
  x_w106_c15
  x_w106_c16
  x_w106_c17
  x_w106_c18
  x_w106_c19
  x_w106_c20
  x_w106_c21
  x_w106_c22
  x_w106_c23
  x_w106_c24
  x_w107_c0
  x_w107_c1
  x_w107_c2
  x_w107_c3
  x_w107_c4
  x_w107_c5
  x_w107_c6
  x_w107_c7
  x_w107_c8
  x_w107_c9
  x_w107_c10
  x_w107_c11
  x_w107_c12
  x_w107_c13
  x_w107_c14
  x_w107_c15
  x_w107_c16
  x_w107_c17
  x_w107_c18
  x_w107_c19
  x_w107_c20
  x_w107_c21
  x_w107_c22
  x_w107_c23
  x_w107_c24
  x_w108_c0
  x_w108_c1
  x_w108_c2
  x_w108_c3
  x_w108_c4
  x_w108_c5
  x_w108_c6
  x_w108_c7
  x_w108_c8
  x_w108_c9
  x_w108_c10
  x_w108_c11
  x_w108_c12
  x_w108_c13
  x_w108_c14
  x_w108_c15
  x_w108_c16
  x_w108_c17
  x_w108_c18
  x_w108_c19
  x_w108_c20
  x_w108_c21
  x_w108_c22
  x_w108_c23
  x_w108_c24
  x_w109_c0
  x_w109_c1
  x_w109_c2
  x_w109_c3
  x_w109_c4
  x_w109_c5
  x_w109_c6
  x_w109_c7
  x_w109_c8
  x_w109_c9
  x_w109_c10
  x_w109_c11
  x_w109_c12
  x_w109_c13
  x_w109_c14
  x_w109_c15
  x_w109_c16
  x_w109_c17
  x_w109_c18
  x_w109_c19
  x_w109_c20
  x_w109_c21
  x_w109_c22
  x_w109_c23
  x_w109_c24
  x_w110_c0
  x_w110_c1
  x_w110_c2
  x_w110_c3
  x_w110_c4
  x_w110_c5
  x_w110_c6
  x_w110_c7
  x_w110_c8
  x_w110_c9
  x_w110_c10
  x_w110_c11
  x_w110_c12
  x_w110_c13
  x_w110_c14
  x_w110_c15
  x_w110_c16
  x_w110_c17
  x_w110_c18
  x_w110_c19
  x_w110_c20
  x_w110_c21
  x_w110_c22
  x_w110_c23
  x_w110_c24
  x_w111_c0
  x_w111_c1
  x_w111_c2
  x_w111_c3
  x_w111_c4
  x_w111_c5
  x_w111_c6
  x_w111_c7
  x_w111_c8
  x_w111_c9
  x_w111_c10
  x_w111_c11
  x_w111_c12
  x_w111_c13
  x_w111_c14
  x_w111_c15
  x_w111_c16
  x_w111_c17
  x_w111_c18
  x_w111_c19
  x_w111_c20
  x_w111_c21
  x_w111_c22
  x_w111_c23
  x_w111_c24
  x_w112_c0
  x_w112_c1
  x_w112_c2
  x_w112_c3
  x_w112_c4
  x_w112_c5
  x_w112_c6
  x_w112_c7
  x_w112_c8
  x_w112_c9
  x_w112_c10
  x_w112_c11
  x_w112_c12
  x_w112_c13
  x_w112_c14
  x_w112_c15
  x_w112_c16
  x_w112_c17
  x_w112_c18
  x_w112_c19
  x_w112_c20
  x_w112_c21
  x_w112_c22
  x_w112_c23
  x_w112_c24
  x_w113_c0
  x_w113_c1
  x_w113_c2
  x_w113_c3
  x_w113_c4
  x_w113_c5
  x_w113_c6
  x_w113_c7
  x_w113_c8
  x_w113_c9
  x_w113_c10
  x_w113_c11
  x_w113_c12
  x_w113_c13
  x_w113_c14
  x_w113_c15
  x_w113_c16
  x_w113_c17
  x_w113_c18
  x_w113_c19
  x_w113_c20
  x_w113_c21
  x_w113_c22
  x_w113_c23
  x_w113_c24
  x_w114_c0
  x_w114_c1
  x_w114_c2
  x_w114_c3
  x_w114_c4
  x_w114_c5
  x_w114_c6
  x_w114_c7
  x_w114_c8
  x_w114_c9
  x_w114_c10
  x_w114_c11
  x_w114_c12
  x_w114_c13
  x_w114_c14
  x_w114_c15
  x_w114_c16
  x_w114_c17
  x_w114_c18
  x_w114_c19
  x_w114_c20
  x_w114_c21
  x_w114_c22
  x_w114_c23
  x_w114_c24
  x_w115_c0
  x_w115_c1
  x_w115_c2
  x_w115_c3
  x_w115_c4
  x_w115_c5
  x_w115_c6
  x_w115_c7
  x_w115_c8
  x_w115_c9
  x_w115_c10
  x_w115_c11
  x_w115_c12
  x_w115_c13
  x_w115_c14
  x_w115_c15
  x_w115_c16
  x_w115_c17
  x_w115_c18
  x_w115_c19
  x_w115_c20
  x_w115_c21
  x_w115_c22
  x_w115_c23
  x_w115_c24
  x_w116_c0
  x_w116_c1
  x_w116_c2
  x_w116_c3
  x_w116_c4
  x_w116_c5
  x_w116_c6
  x_w116_c7
  x_w116_c8
  x_w116_c9
  x_w116_c10
  x_w116_c11
  x_w116_c12
  x_w116_c13
  x_w116_c14
  x_w116_c15
  x_w116_c16
  x_w116_c17
  x_w116_c18
  x_w116_c19
  x_w116_c20
  x_w116_c21
  x_w116_c22
  x_w116_c23
  x_w116_c24
  x_w117_c0
  x_w117_c1
  x_w117_c2
  x_w117_c3
  x_w117_c4
  x_w117_c5
  x_w117_c6
  x_w117_c7
  x_w117_c8
  x_w117_c9
  x_w117_c10
  x_w117_c11
  x_w117_c12
  x_w117_c13
  x_w117_c14
  x_w117_c15
  x_w117_c16
  x_w117_c17
  x_w117_c18
  x_w117_c19
  x_w117_c20
  x_w117_c21
  x_w117_c22
  x_w117_c23
  x_w117_c24
  x_w118_c0
  x_w118_c1
  x_w118_c2
  x_w118_c3
  x_w118_c4
  x_w118_c5
  x_w118_c6
  x_w118_c7
  x_w118_c8
  x_w118_c9
  x_w118_c10
  x_w118_c11
  x_w118_c12
  x_w118_c13
  x_w118_c14
  x_w118_c15
  x_w118_c16
  x_w118_c17
  x_w118_c18
  x_w118_c19
  x_w118_c20
  x_w118_c21
  x_w118_c22
  x_w118_c23
  x_w118_c24
  x_w119_c0
  x_w119_c1
  x_w119_c2
  x_w119_c3
  x_w119_c4
  x_w119_c5
  x_w119_c6
  x_w119_c7
  x_w119_c8
  x_w119_c9
  x_w119_c10
  x_w119_c11
  x_w119_c12
  x_w119_c13
  x_w119_c14
  x_w119_c15
  x_w119_c16
  x_w119_c17
  x_w119_c18
  x_w119_c19
  x_w119_c20
  x_w119_c21
  x_w119_c22
  x_w119_c23
  x_w119_c24
  x_w120_c0
  x_w120_c1
  x_w120_c2
  x_w120_c3
  x_w120_c4
  x_w120_c5
  x_w120_c6
  x_w120_c7
  x_w120_c8
  x_w120_c9
  x_w120_c10
  x_w120_c11
  x_w120_c12
  x_w120_c13
  x_w120_c14
  x_w120_c15
  x_w120_c16
  x_w120_c17
  x_w120_c18
  x_w120_c19
  x_w120_c20
  x_w120_c21
  x_w120_c22
  x_w120_c23
  x_w120_c24
  x_w121_c0
  x_w121_c1
  x_w121_c2
  x_w121_c3
  x_w121_c4
  x_w121_c5
  x_w121_c6
  x_w121_c7
  x_w121_c8
  x_w121_c9
  x_w121_c10
  x_w121_c11
  x_w121_c12
  x_w121_c13
  x_w121_c14
  x_w121_c15
  x_w121_c16
  x_w121_c17
  x_w121_c18
  x_w121_c19
  x_w121_c20
  x_w121_c21
  x_w121_c22
  x_w121_c23
  x_w121_c24
  x_w122_c0
  x_w122_c1
  x_w122_c2
  x_w122_c3
  x_w122_c4
  x_w122_c5
  x_w122_c6
  x_w122_c7
  x_w122_c8
  x_w122_c9
  x_w122_c10
  x_w122_c11
  x_w122_c12
  x_w122_c13
  x_w122_c14
  x_w122_c15
  x_w122_c16
  x_w122_c17
  x_w122_c18
  x_w122_c19
  x_w122_c20
  x_w122_c21
  x_w122_c22
  x_w122_c23
  x_w122_c24
  x_w123_c0
  x_w123_c1
  x_w123_c2
  x_w123_c3
  x_w123_c4
  x_w123_c5
  x_w123_c6
  x_w123_c7
  x_w123_c8
  x_w123_c9
  x_w123_c10
  x_w123_c11
  x_w123_c12
  x_w123_c13
  x_w123_c14
  x_w123_c15
  x_w123_c16
  x_w123_c17
  x_w123_c18
  x_w123_c19
  x_w123_c20
  x_w123_c21
  x_w123_c22
  x_w123_c23
  x_w123_c24
  x_w124_c0
  x_w124_c1
  x_w124_c2
  x_w124_c3
  x_w124_c4
  x_w124_c5
  x_w124_c6
  x_w124_c7
  x_w124_c8
  x_w124_c9
  x_w124_c10
  x_w124_c11
  x_w124_c12
  x_w124_c13
  x_w124_c14
  x_w124_c15
  x_w124_c16
  x_w124_c17
  x_w124_c18
  x_w124_c19
  x_w124_c20
  x_w124_c21
  x_w124_c22
  x_w124_c23
  x_w124_c24
  x_w125_c0
  x_w125_c1
  x_w125_c2
  x_w125_c3
  x_w125_c4
  x_w125_c5
  x_w125_c6
  x_w125_c7
  x_w125_c8
  x_w125_c9
  x_w125_c10
  x_w125_c11
  x_w125_c12
  x_w125_c13
  x_w125_c14
  x_w125_c15
  x_w125_c16
  x_w125_c17
  x_w125_c18
  x_w125_c19
  x_w125_c20
  x_w125_c21
  x_w125_c22
  x_w125_c23
  x_w125_c24
  x_w126_c0
  x_w126_c1
  x_w126_c2
  x_w126_c3
  x_w126_c4
  x_w126_c5
  x_w126_c6
  x_w126_c7
  x_w126_c8
  x_w126_c9
  x_w126_c10
  x_w126_c11
  x_w126_c12
  x_w126_c13
  x_w126_c14
  x_w126_c15
  x_w126_c16
  x_w126_c17
  x_w126_c18
  x_w126_c19
  x_w126_c20
  x_w126_c21
  x_w126_c22
  x_w126_c23
  x_w126_c24
  x_w127_c0
  x_w127_c1
  x_w127_c2
  x_w127_c3
  x_w127_c4
  x_w127_c5
  x_w127_c6
  x_w127_c7
  x_w127_c8
  x_w127_c9
  x_w127_c10
  x_w127_c11
  x_w127_c12
  x_w127_c13
  x_w127_c14
  x_w127_c15
  x_w127_c16
  x_w127_c17
  x_w127_c18
  x_w127_c19
  x_w127_c20
  x_w127_c21
  x_w127_c22
  x_w127_c23
  x_w127_c24
  x_w128_c0
  x_w128_c1
  x_w128_c2
  x_w128_c3
  x_w128_c4
  x_w128_c5
  x_w128_c6
  x_w128_c7
  x_w128_c8
  x_w128_c9
  x_w128_c10
  x_w128_c11
  x_w128_c12
  x_w128_c13
  x_w128_c14
  x_w128_c15
  x_w128_c16
  x_w128_c17
  x_w128_c18
  x_w128_c19
  x_w128_c20
  x_w128_c21
  x_w128_c22
  x_w128_c23
  x_w128_c24
  x_w129_c0
  x_w129_c1
  x_w129_c2
  x_w129_c3
  x_w129_c4
  x_w129_c5
  x_w129_c6
  x_w129_c7
  x_w129_c8
  x_w129_c9
  x_w129_c10
  x_w129_c11
  x_w129_c12
  x_w129_c13
  x_w129_c14
  x_w129_c15
  x_w129_c16
  x_w129_c17
  x_w129_c18
  x_w129_c19
  x_w129_c20
  x_w129_c21
  x_w129_c22
  x_w129_c23
  x_w129_c24
  x_w130_c0
  x_w130_c1
  x_w130_c2
  x_w130_c3
  x_w130_c4
  x_w130_c5
  x_w130_c6
  x_w130_c7
  x_w130_c8
  x_w130_c9
  x_w130_c10
  x_w130_c11
  x_w130_c12
  x_w130_c13
  x_w130_c14
  x_w130_c15
  x_w130_c16
  x_w130_c17
  x_w130_c18
  x_w130_c19
  x_w130_c20
  x_w130_c21
  x_w130_c22
  x_w130_c23
  x_w130_c24
  x_w131_c0
  x_w131_c1
  x_w131_c2
  x_w131_c3
  x_w131_c4
  x_w131_c5
  x_w131_c6
  x_w131_c7
  x_w131_c8
  x_w131_c9
  x_w131_c10
  x_w131_c11
  x_w131_c12
  x_w131_c13
  x_w131_c14
  x_w131_c15
  x_w131_c16
  x_w131_c17
  x_w131_c18
  x_w131_c19
  x_w131_c20
  x_w131_c21
  x_w131_c22
  x_w131_c23
  x_w131_c24
  x_w132_c0
  x_w132_c1
  x_w132_c2
  x_w132_c3
  x_w132_c4
  x_w132_c5
  x_w132_c6
  x_w132_c7
  x_w132_c8
  x_w132_c9
  x_w132_c10
  x_w132_c11
  x_w132_c12
  x_w132_c13
  x_w132_c14
  x_w132_c15
  x_w132_c16
  x_w132_c17
  x_w132_c18
  x_w132_c19
  x_w132_c20
  x_w132_c21
  x_w132_c22
  x_w132_c23
  x_w132_c24
  x_w133_c0
  x_w133_c1
  x_w133_c2
  x_w133_c3
  x_w133_c4
  x_w133_c5
  x_w133_c6
  x_w133_c7
  x_w133_c8
  x_w133_c9
  x_w133_c10
  x_w133_c11
  x_w133_c12
  x_w133_c13
  x_w133_c14
  x_w133_c15
  x_w133_c16
  x_w133_c17
  x_w133_c18
  x_w133_c19
  x_w133_c20
  x_w133_c21
  x_w133_c22
  x_w133_c23
  x_w133_c24
  x_w134_c0
  x_w134_c1
  x_w134_c2
  x_w134_c3
  x_w134_c4
  x_w134_c5
  x_w134_c6
  x_w134_c7
  x_w134_c8
  x_w134_c9
  x_w134_c10
  x_w134_c11
  x_w134_c12
  x_w134_c13
  x_w134_c14
  x_w134_c15
  x_w134_c16
  x_w134_c17
  x_w134_c18
  x_w134_c19
  x_w134_c20
  x_w134_c21
  x_w134_c22
  x_w134_c23
  x_w134_c24
  x_w135_c0
  x_w135_c1
  x_w135_c2
  x_w135_c3
  x_w135_c4
  x_w135_c5
  x_w135_c6
  x_w135_c7
  x_w135_c8
  x_w135_c9
  x_w135_c10
  x_w135_c11
  x_w135_c12
  x_w135_c13
  x_w135_c14
  x_w135_c15
  x_w135_c16
  x_w135_c17
  x_w135_c18
  x_w135_c19
  x_w135_c20
  x_w135_c21
  x_w135_c22
  x_w135_c23
  x_w135_c24
  x_w136_c0
  x_w136_c1
  x_w136_c2
  x_w136_c3
  x_w136_c4
  x_w136_c5
  x_w136_c6
  x_w136_c7
  x_w136_c8
  x_w136_c9
  x_w136_c10
  x_w136_c11
  x_w136_c12
  x_w136_c13
  x_w136_c14
  x_w136_c15
  x_w136_c16
  x_w136_c17
  x_w136_c18
  x_w136_c19
  x_w136_c20
  x_w136_c21
  x_w136_c22
  x_w136_c23
  x_w136_c24
  x_w137_c0
  x_w137_c1
  x_w137_c2
  x_w137_c3
  x_w137_c4
  x_w137_c5
  x_w137_c6
  x_w137_c7
  x_w137_c8
  x_w137_c9
  x_w137_c10
  x_w137_c11
  x_w137_c12
  x_w137_c13
  x_w137_c14
  x_w137_c15
  x_w137_c16
  x_w137_c17
  x_w137_c18
  x_w137_c19
  x_w137_c20
  x_w137_c21
  x_w137_c22
  x_w137_c23
  x_w137_c24
  x_w138_c0
  x_w138_c1
  x_w138_c2
  x_w138_c3
  x_w138_c4
  x_w138_c5
  x_w138_c6
  x_w138_c7
  x_w138_c8
  x_w138_c9
  x_w138_c10
  x_w138_c11
  x_w138_c12
  x_w138_c13
  x_w138_c14
  x_w138_c15
  x_w138_c16
  x_w138_c17
  x_w138_c18
  x_w138_c19
  x_w138_c20
  x_w138_c21
  x_w138_c22
  x_w138_c23
  x_w138_c24
  x_w139_c0
  x_w139_c1
  x_w139_c2
  x_w139_c3
  x_w139_c4
  x_w139_c5
  x_w139_c6
  x_w139_c7
  x_w139_c8
  x_w139_c9
  x_w139_c10
  x_w139_c11
  x_w139_c12
  x_w139_c13
  x_w139_c14
  x_w139_c15
  x_w139_c16
  x_w139_c17
  x_w139_c18
  x_w139_c19
  x_w139_c20
  x_w139_c21
  x_w139_c22
  x_w139_c23
  x_w139_c24
  x_w140_c0
  x_w140_c1
  x_w140_c2
  x_w140_c3
  x_w140_c4
  x_w140_c5
  x_w140_c6
  x_w140_c7
  x_w140_c8
  x_w140_c9
  x_w140_c10
  x_w140_c11
  x_w140_c12
  x_w140_c13
  x_w140_c14
  x_w140_c15
  x_w140_c16
  x_w140_c17
  x_w140_c18
  x_w140_c19
  x_w140_c20
  x_w140_c21
  x_w140_c22
  x_w140_c23
  x_w140_c24
  x_w141_c0
  x_w141_c1
  x_w141_c2
  x_w141_c3
  x_w141_c4
  x_w141_c5
  x_w141_c6
  x_w141_c7
  x_w141_c8
  x_w141_c9
  x_w141_c10
  x_w141_c11
  x_w141_c12
  x_w141_c13
  x_w141_c14
  x_w141_c15
  x_w141_c16
  x_w141_c17
  x_w141_c18
  x_w141_c19
  x_w141_c20
  x_w141_c21
  x_w141_c22
  x_w141_c23
  x_w141_c24
  x_w142_c0
  x_w142_c1
  x_w142_c2
  x_w142_c3
  x_w142_c4
  x_w142_c5
  x_w142_c6
  x_w142_c7
  x_w142_c8
  x_w142_c9
  x_w142_c10
  x_w142_c11
  x_w142_c12
  x_w142_c13
  x_w142_c14
  x_w142_c15
  x_w142_c16
  x_w142_c17
  x_w142_c18
  x_w142_c19
  x_w142_c20
  x_w142_c21
  x_w142_c22
  x_w142_c23
  x_w142_c24
  x_w143_c0
  x_w143_c1
  x_w143_c2
  x_w143_c3
  x_w143_c4
  x_w143_c5
  x_w143_c6
  x_w143_c7
  x_w143_c8
  x_w143_c9
  x_w143_c10
  x_w143_c11
  x_w143_c12
  x_w143_c13
  x_w143_c14
  x_w143_c15
  x_w143_c16
  x_w143_c17
  x_w143_c18
  x_w143_c19
  x_w143_c20
  x_w143_c21
  x_w143_c22
  x_w143_c23
  x_w143_c24
  x_w144_c0
  x_w144_c1
  x_w144_c2
  x_w144_c3
  x_w144_c4
  x_w144_c5
  x_w144_c6
  x_w144_c7
  x_w144_c8
  x_w144_c9
  x_w144_c10
  x_w144_c11
  x_w144_c12
  x_w144_c13
  x_w144_c14
  x_w144_c15
  x_w144_c16
  x_w144_c17
  x_w144_c18
  x_w144_c19
  x_w144_c20
  x_w144_c21
  x_w144_c22
  x_w144_c23
  x_w144_c24
  x_w145_c0
  x_w145_c1
  x_w145_c2
  x_w145_c3
  x_w145_c4
  x_w145_c5
  x_w145_c6
  x_w145_c7
  x_w145_c8
  x_w145_c9
  x_w145_c10
  x_w145_c11
  x_w145_c12
  x_w145_c13
  x_w145_c14
  x_w145_c15
  x_w145_c16
  x_w145_c17
  x_w145_c18
  x_w145_c19
  x_w145_c20
  x_w145_c21
  x_w145_c22
  x_w145_c23
  x_w145_c24
  x_w146_c0
  x_w146_c1
  x_w146_c2
  x_w146_c3
  x_w146_c4
  x_w146_c5
  x_w146_c6
  x_w146_c7
  x_w146_c8
  x_w146_c9
  x_w146_c10
  x_w146_c11
  x_w146_c12
  x_w146_c13
  x_w146_c14
  x_w146_c15
  x_w146_c16
  x_w146_c17
  x_w146_c18
  x_w146_c19
  x_w146_c20
  x_w146_c21
  x_w146_c22
  x_w146_c23
  x_w146_c24
  x_w147_c0
  x_w147_c1
  x_w147_c2
  x_w147_c3
  x_w147_c4
  x_w147_c5
  x_w147_c6
  x_w147_c7
  x_w147_c8
  x_w147_c9
  x_w147_c10
  x_w147_c11
  x_w147_c12
  x_w147_c13
  x_w147_c14
  x_w147_c15
  x_w147_c16
  x_w147_c17
  x_w147_c18
  x_w147_c19
  x_w147_c20
  x_w147_c21
  x_w147_c22
  x_w147_c23
  x_w147_c24
  x_w148_c0
  x_w148_c1
  x_w148_c2
  x_w148_c3
  x_w148_c4
  x_w148_c5
  x_w148_c6
  x_w148_c7
  x_w148_c8
  x_w148_c9
  x_w148_c10
  x_w148_c11
  x_w148_c12
  x_w148_c13
  x_w148_c14
  x_w148_c15
  x_w148_c16
  x_w148_c17
  x_w148_c18
  x_w148_c19
  x_w148_c20
  x_w148_c21
  x_w148_c22
  x_w148_c23
  x_w148_c24
  x_w149_c0
  x_w149_c1
  x_w149_c2
  x_w149_c3
  x_w149_c4
  x_w149_c5
  x_w149_c6
  x_w149_c7
  x_w149_c8
  x_w149_c9
  x_w149_c10
  x_w149_c11
  x_w149_c12
  x_w149_c13
  x_w149_c14
  x_w149_c15
  x_w149_c16
  x_w149_c17
  x_w149_c18
  x_w149_c19
  x_w149_c20
  x_w149_c21
  x_w149_c22
  x_w149_c23
  x_w149_c24
  x_w150_c0
  x_w150_c1
  x_w150_c2
  x_w150_c3
  x_w150_c4
  x_w150_c5
  x_w150_c6
  x_w150_c7
  x_w150_c8
  x_w150_c9
  x_w150_c10
  x_w150_c11
  x_w150_c12
  x_w150_c13
  x_w150_c14
  x_w150_c15
  x_w150_c16
  x_w150_c17
  x_w150_c18
  x_w150_c19
  x_w150_c20
  x_w150_c21
  x_w150_c22
  x_w150_c23
  x_w150_c24
  x_w151_c0
  x_w151_c1
  x_w151_c2
  x_w151_c3
  x_w151_c4
  x_w151_c5
  x_w151_c6
  x_w151_c7
  x_w151_c8
  x_w151_c9
  x_w151_c10
  x_w151_c11
  x_w151_c12
  x_w151_c13
  x_w151_c14
  x_w151_c15
  x_w151_c16
  x_w151_c17
  x_w151_c18
  x_w151_c19
  x_w151_c20
  x_w151_c21
  x_w151_c22
  x_w151_c23
  x_w151_c24
  x_w152_c0
  x_w152_c1
  x_w152_c2
  x_w152_c3
  x_w152_c4
  x_w152_c5
  x_w152_c6
  x_w152_c7
  x_w152_c8
  x_w152_c9
  x_w152_c10
  x_w152_c11
  x_w152_c12
  x_w152_c13
  x_w152_c14
  x_w152_c15
  x_w152_c16
  x_w152_c17
  x_w152_c18
  x_w152_c19
  x_w152_c20
  x_w152_c21
  x_w152_c22
  x_w152_c23
  x_w152_c24
  x_w153_c0
  x_w153_c1
  x_w153_c2
  x_w153_c3
  x_w153_c4
  x_w153_c5
  x_w153_c6
  x_w153_c7
  x_w153_c8
  x_w153_c9
  x_w153_c10
  x_w153_c11
  x_w153_c12
  x_w153_c13
  x_w153_c14
  x_w153_c15
  x_w153_c16
  x_w153_c17
  x_w153_c18
  x_w153_c19
  x_w153_c20
  x_w153_c21
  x_w153_c22
  x_w153_c23
  x_w153_c24
  x_w154_c0
  x_w154_c1
  x_w154_c2
  x_w154_c3
  x_w154_c4
  x_w154_c5
  x_w154_c6
  x_w154_c7
  x_w154_c8
  x_w154_c9
  x_w154_c10
  x_w154_c11
  x_w154_c12
  x_w154_c13
  x_w154_c14
  x_w154_c15
  x_w154_c16
  x_w154_c17
  x_w154_c18
  x_w154_c19
  x_w154_c20
  x_w154_c21
  x_w154_c22
  x_w154_c23
  x_w154_c24
  x_w155_c0
  x_w155_c1
  x_w155_c2
  x_w155_c3
  x_w155_c4
  x_w155_c5
  x_w155_c6
  x_w155_c7
  x_w155_c8
  x_w155_c9
  x_w155_c10
  x_w155_c11
  x_w155_c12
  x_w155_c13
  x_w155_c14
  x_w155_c15
  x_w155_c16
  x_w155_c17
  x_w155_c18
  x_w155_c19
  x_w155_c20
  x_w155_c21
  x_w155_c22
  x_w155_c23
  x_w155_c24
  x_w156_c0
  x_w156_c1
  x_w156_c2
  x_w156_c3
  x_w156_c4
  x_w156_c5
  x_w156_c6
  x_w156_c7
  x_w156_c8
  x_w156_c9
  x_w156_c10
  x_w156_c11
  x_w156_c12
  x_w156_c13
  x_w156_c14
  x_w156_c15
  x_w156_c16
  x_w156_c17
  x_w156_c18
  x_w156_c19
  x_w156_c20
  x_w156_c21
  x_w156_c22
  x_w156_c23
  x_w156_c24
  x_w157_c0
  x_w157_c1
  x_w157_c2
  x_w157_c3
  x_w157_c4
  x_w157_c5
  x_w157_c6
  x_w157_c7
  x_w157_c8
  x_w157_c9
  x_w157_c10
  x_w157_c11
  x_w157_c12
  x_w157_c13
  x_w157_c14
  x_w157_c15
  x_w157_c16
  x_w157_c17
  x_w157_c18
  x_w157_c19
  x_w157_c20
  x_w157_c21
  x_w157_c22
  x_w157_c23
  x_w157_c24
  x_w158_c0
  x_w158_c1
  x_w158_c2
  x_w158_c3
  x_w158_c4
  x_w158_c5
  x_w158_c6
  x_w158_c7
  x_w158_c8
  x_w158_c9
  x_w158_c10
  x_w158_c11
  x_w158_c12
  x_w158_c13
  x_w158_c14
  x_w158_c15
  x_w158_c16
  x_w158_c17
  x_w158_c18
  x_w158_c19
  x_w158_c20
  x_w158_c21
  x_w158_c22
  x_w158_c23
  x_w158_c24
  x_w159_c0
  x_w159_c1
  x_w159_c2
  x_w159_c3
  x_w159_c4
  x_w159_c5
  x_w159_c6
  x_w159_c7
  x_w159_c8
  x_w159_c9
  x_w159_c10
  x_w159_c11
  x_w159_c12
  x_w159_c13
  x_w159_c14
  x_w159_c15
  x_w159_c16
  x_w159_c17
  x_w159_c18
  x_w159_c19
  x_w159_c20
  x_w159_c21
  x_w159_c22
  x_w159_c23
  x_w159_c24
  x_w160_c0
  x_w160_c1
  x_w160_c2
  x_w160_c3
  x_w160_c4
  x_w160_c5
  x_w160_c6
  x_w160_c7
  x_w160_c8
  x_w160_c9
  x_w160_c10
  x_w160_c11
  x_w160_c12
  x_w160_c13
  x_w160_c14
  x_w160_c15
  x_w160_c16
  x_w160_c17
  x_w160_c18
  x_w160_c19
  x_w160_c20
  x_w160_c21
  x_w160_c22
  x_w160_c23
  x_w160_c24
  x_w161_c0
  x_w161_c1
  x_w161_c2
  x_w161_c3
  x_w161_c4
  x_w161_c5
  x_w161_c6
  x_w161_c7
  x_w161_c8
  x_w161_c9
  x_w161_c10
  x_w161_c11
  x_w161_c12
  x_w161_c13
  x_w161_c14
  x_w161_c15
  x_w161_c16
  x_w161_c17
  x_w161_c18
  x_w161_c19
  x_w161_c20
  x_w161_c21
  x_w161_c22
  x_w161_c23
  x_w161_c24
  x_w162_c0
  x_w162_c1
  x_w162_c2
  x_w162_c3
  x_w162_c4
  x_w162_c5
  x_w162_c6
  x_w162_c7
  x_w162_c8
  x_w162_c9
  x_w162_c10
  x_w162_c11
  x_w162_c12
  x_w162_c13
  x_w162_c14
  x_w162_c15
  x_w162_c16
  x_w162_c17
  x_w162_c18
  x_w162_c19
  x_w162_c20
  x_w162_c21
  x_w162_c22
  x_w162_c23
  x_w162_c24
  x_w163_c0
  x_w163_c1
  x_w163_c2
  x_w163_c3
  x_w163_c4
  x_w163_c5
  x_w163_c6
  x_w163_c7
  x_w163_c8
  x_w163_c9
  x_w163_c10
  x_w163_c11
  x_w163_c12
  x_w163_c13
  x_w163_c14
  x_w163_c15
  x_w163_c16
  x_w163_c17
  x_w163_c18
  x_w163_c19
  x_w163_c20
  x_w163_c21
  x_w163_c22
  x_w163_c23
  x_w163_c24
  x_w164_c0
  x_w164_c1
  x_w164_c2
  x_w164_c3
  x_w164_c4
  x_w164_c5
  x_w164_c6
  x_w164_c7
  x_w164_c8
  x_w164_c9
  x_w164_c10
  x_w164_c11
  x_w164_c12
  x_w164_c13
  x_w164_c14
  x_w164_c15
  x_w164_c16
  x_w164_c17
  x_w164_c18
  x_w164_c19
  x_w164_c20
  x_w164_c21
  x_w164_c22
  x_w164_c23
  x_w164_c24
  x_w165_c0
  x_w165_c1
  x_w165_c2
  x_w165_c3
  x_w165_c4
  x_w165_c5
  x_w165_c6
  x_w165_c7
  x_w165_c8
  x_w165_c9
  x_w165_c10
  x_w165_c11
  x_w165_c12
  x_w165_c13
  x_w165_c14
  x_w165_c15
  x_w165_c16
  x_w165_c17
  x_w165_c18
  x_w165_c19
  x_w165_c20
  x_w165_c21
  x_w165_c22
  x_w165_c23
  x_w165_c24
  x_w166_c0
  x_w166_c1
  x_w166_c2
  x_w166_c3
  x_w166_c4
  x_w166_c5
  x_w166_c6
  x_w166_c7
  x_w166_c8
  x_w166_c9
  x_w166_c10
  x_w166_c11
  x_w166_c12
  x_w166_c13
  x_w166_c14
  x_w166_c15
  x_w166_c16
  x_w166_c17
  x_w166_c18
  x_w166_c19
  x_w166_c20
  x_w166_c21
  x_w166_c22
  x_w166_c23
  x_w166_c24
  x_w167_c0
  x_w167_c1
  x_w167_c2
  x_w167_c3
  x_w167_c4
  x_w167_c5
  x_w167_c6
  x_w167_c7
  x_w167_c8
  x_w167_c9
  x_w167_c10
  x_w167_c11
  x_w167_c12
  x_w167_c13
  x_w167_c14
  x_w167_c15
  x_w167_c16
  x_w167_c17
  x_w167_c18
  x_w167_c19
  x_w167_c20
  x_w167_c21
  x_w167_c22
  x_w167_c23
  x_w167_c24
  x_w168_c0
  x_w168_c1
  x_w168_c2
  x_w168_c3
  x_w168_c4
  x_w168_c5
  x_w168_c6
  x_w168_c7
  x_w168_c8
  x_w168_c9
  x_w168_c10
  x_w168_c11
  x_w168_c12
  x_w168_c13
  x_w168_c14
  x_w168_c15
  x_w168_c16
  x_w168_c17
  x_w168_c18
  x_w168_c19
  x_w168_c20
  x_w168_c21
  x_w168_c22
  x_w168_c23
  x_w168_c24
  x_w169_c0
  x_w169_c1
  x_w169_c2
  x_w169_c3
  x_w169_c4
  x_w169_c5
  x_w169_c6
  x_w169_c7
  x_w169_c8
  x_w169_c9
  x_w169_c10
  x_w169_c11
  x_w169_c12
  x_w169_c13
  x_w169_c14
  x_w169_c15
  x_w169_c16
  x_w169_c17
  x_w169_c18
  x_w169_c19
  x_w169_c20
  x_w169_c21
  x_w169_c22
  x_w169_c23
  x_w169_c24
  x_w170_c0
  x_w170_c1
  x_w170_c2
  x_w170_c3
  x_w170_c4
  x_w170_c5
  x_w170_c6
  x_w170_c7
  x_w170_c8
  x_w170_c9
  x_w170_c10
  x_w170_c11
  x_w170_c12
  x_w170_c13
  x_w170_c14
  x_w170_c15
  x_w170_c16
  x_w170_c17
  x_w170_c18
  x_w170_c19
  x_w170_c20
  x_w170_c21
  x_w170_c22
  x_w170_c23
  x_w170_c24
  x_w171_c0
  x_w171_c1
  x_w171_c2
  x_w171_c3
  x_w171_c4
  x_w171_c5
  x_w171_c6
  x_w171_c7
  x_w171_c8
  x_w171_c9
  x_w171_c10
  x_w171_c11
  x_w171_c12
  x_w171_c13
  x_w171_c14
  x_w171_c15
  x_w171_c16
  x_w171_c17
  x_w171_c18
  x_w171_c19
  x_w171_c20
  x_w171_c21
  x_w171_c22
  x_w171_c23
  x_w171_c24
  x_w172_c0
  x_w172_c1
  x_w172_c2
  x_w172_c3
  x_w172_c4
  x_w172_c5
  x_w172_c6
  x_w172_c7
  x_w172_c8
  x_w172_c9
  x_w172_c10
  x_w172_c11
  x_w172_c12
  x_w172_c13
  x_w172_c14
  x_w172_c15
  x_w172_c16
  x_w172_c17
  x_w172_c18
  x_w172_c19
  x_w172_c20
  x_w172_c21
  x_w172_c22
  x_w172_c23
  x_w172_c24
  x_w173_c0
  x_w173_c1
  x_w173_c2
  x_w173_c3
  x_w173_c4
  x_w173_c5
  x_w173_c6
  x_w173_c7
  x_w173_c8
  x_w173_c9
  x_w173_c10
  x_w173_c11
  x_w173_c12
  x_w173_c13
  x_w173_c14
  x_w173_c15
  x_w173_c16
  x_w173_c17
  x_w173_c18
  x_w173_c19
  x_w173_c20
  x_w173_c21
  x_w173_c22
  x_w173_c23
  x_w173_c24
  x_w174_c0
  x_w174_c1
  x_w174_c2
  x_w174_c3
  x_w174_c4
  x_w174_c5
  x_w174_c6
  x_w174_c7
  x_w174_c8
  x_w174_c9
  x_w174_c10
  x_w174_c11
  x_w174_c12
  x_w174_c13
  x_w174_c14
  x_w174_c15
  x_w174_c16
  x_w174_c17
  x_w174_c18
  x_w174_c19
  x_w174_c20
  x_w174_c21
  x_w174_c22
  x_w174_c23
  x_w174_c24
  x_w175_c0
  x_w175_c1
  x_w175_c2
  x_w175_c3
  x_w175_c4
  x_w175_c5
  x_w175_c6
  x_w175_c7
  x_w175_c8
  x_w175_c9
  x_w175_c10
  x_w175_c11
  x_w175_c12
  x_w175_c13
  x_w175_c14
  x_w175_c15
  x_w175_c16
  x_w175_c17
  x_w175_c18
  x_w175_c19
  x_w175_c20
  x_w175_c21
  x_w175_c22
  x_w175_c23
  x_w175_c24
  x_w176_c0
  x_w176_c1
  x_w176_c2
  x_w176_c3
  x_w176_c4
  x_w176_c5
  x_w176_c6
  x_w176_c7
  x_w176_c8
  x_w176_c9
  x_w176_c10
  x_w176_c11
  x_w176_c12
  x_w176_c13
  x_w176_c14
  x_w176_c15
  x_w176_c16
  x_w176_c17
  x_w176_c18
  x_w176_c19
  x_w176_c20
  x_w176_c21
  x_w176_c22
  x_w176_c23
  x_w176_c24
  x_w177_c0
  x_w177_c1
  x_w177_c2
  x_w177_c3
  x_w177_c4
  x_w177_c5
  x_w177_c6
  x_w177_c7
  x_w177_c8
  x_w177_c9
  x_w177_c10
  x_w177_c11
  x_w177_c12
  x_w177_c13
  x_w177_c14
  x_w177_c15
  x_w177_c16
  x_w177_c17
  x_w177_c18
  x_w177_c19
  x_w177_c20
  x_w177_c21
  x_w177_c22
  x_w177_c23
  x_w177_c24
  x_w178_c0
  x_w178_c1
  x_w178_c2
  x_w178_c3
  x_w178_c4
  x_w178_c5
  x_w178_c6
  x_w178_c7
  x_w178_c8
  x_w178_c9
  x_w178_c10
  x_w178_c11
  x_w178_c12
  x_w178_c13
  x_w178_c14
  x_w178_c15
  x_w178_c16
  x_w178_c17
  x_w178_c18
  x_w178_c19
  x_w178_c20
  x_w178_c21
  x_w178_c22
  x_w178_c23
  x_w178_c24
  x_w179_c0
  x_w179_c1
  x_w179_c2
  x_w179_c3
  x_w179_c4
  x_w179_c5
  x_w179_c6
  x_w179_c7
  x_w179_c8
  x_w179_c9
  x_w179_c10
  x_w179_c11
  x_w179_c12
  x_w179_c13
  x_w179_c14
  x_w179_c15
  x_w179_c16
  x_w179_c17
  x_w179_c18
  x_w179_c19
  x_w179_c20
  x_w179_c21
  x_w179_c22
  x_w179_c23
  x_w179_c24
  x_w180_c0
  x_w180_c1
  x_w180_c2
  x_w180_c3
  x_w180_c4
  x_w180_c5
  x_w180_c6
  x_w180_c7
  x_w180_c8
  x_w180_c9
  x_w180_c10
  x_w180_c11
  x_w180_c12
  x_w180_c13
  x_w180_c14
  x_w180_c15
  x_w180_c16
  x_w180_c17
  x_w180_c18
  x_w180_c19
  x_w180_c20
  x_w180_c21
  x_w180_c22
  x_w180_c23
  x_w180_c24
  x_w181_c0
  x_w181_c1
  x_w181_c2
  x_w181_c3
  x_w181_c4
  x_w181_c5
  x_w181_c6
  x_w181_c7
  x_w181_c8
  x_w181_c9
  x_w181_c10
  x_w181_c11
  x_w181_c12
  x_w181_c13
  x_w181_c14
  x_w181_c15
  x_w181_c16
  x_w181_c17
  x_w181_c18
  x_w181_c19
  x_w181_c20
  x_w181_c21
  x_w181_c22
  x_w181_c23
  x_w181_c24
  x_w182_c0
  x_w182_c1
  x_w182_c2
  x_w182_c3
  x_w182_c4
  x_w182_c5
  x_w182_c6
  x_w182_c7
  x_w182_c8
  x_w182_c9
  x_w182_c10
  x_w182_c11
  x_w182_c12
  x_w182_c13
  x_w182_c14
  x_w182_c15
  x_w182_c16
  x_w182_c17
  x_w182_c18
  x_w182_c19
  x_w182_c20
  x_w182_c21
  x_w182_c22
  x_w182_c23
  x_w182_c24
  x_w183_c0
  x_w183_c1
  x_w183_c2
  x_w183_c3
  x_w183_c4
  x_w183_c5
  x_w183_c6
  x_w183_c7
  x_w183_c8
  x_w183_c9
  x_w183_c10
  x_w183_c11
  x_w183_c12
  x_w183_c13
  x_w183_c14
  x_w183_c15
  x_w183_c16
  x_w183_c17
  x_w183_c18
  x_w183_c19
  x_w183_c20
  x_w183_c21
  x_w183_c22
  x_w183_c23
  x_w183_c24
  x_w184_c0
  x_w184_c1
  x_w184_c2
  x_w184_c3
  x_w184_c4
  x_w184_c5
  x_w184_c6
  x_w184_c7
  x_w184_c8
  x_w184_c9
  x_w184_c10
  x_w184_c11
  x_w184_c12
  x_w184_c13
  x_w184_c14
  x_w184_c15
  x_w184_c16
  x_w184_c17
  x_w184_c18
  x_w184_c19
  x_w184_c20
  x_w184_c21
  x_w184_c22
  x_w184_c23
  x_w184_c24
  x_w185_c0
  x_w185_c1
  x_w185_c2
  x_w185_c3
  x_w185_c4
  x_w185_c5
  x_w185_c6
  x_w185_c7
  x_w185_c8
  x_w185_c9
  x_w185_c10
  x_w185_c11
  x_w185_c12
  x_w185_c13
  x_w185_c14
  x_w185_c15
  x_w185_c16
  x_w185_c17
  x_w185_c18
  x_w185_c19
  x_w185_c20
  x_w185_c21
  x_w185_c22
  x_w185_c23
  x_w185_c24
  x_w186_c0
  x_w186_c1
  x_w186_c2
  x_w186_c3
  x_w186_c4
  x_w186_c5
  x_w186_c6
  x_w186_c7
  x_w186_c8
  x_w186_c9
  x_w186_c10
  x_w186_c11
  x_w186_c12
  x_w186_c13
  x_w186_c14
  x_w186_c15
  x_w186_c16
  x_w186_c17
  x_w186_c18
  x_w186_c19
  x_w186_c20
  x_w186_c21
  x_w186_c22
  x_w186_c23
  x_w186_c24
  x_w187_c0
  x_w187_c1
  x_w187_c2
  x_w187_c3
  x_w187_c4
  x_w187_c5
  x_w187_c6
  x_w187_c7
  x_w187_c8
  x_w187_c9
  x_w187_c10
  x_w187_c11
  x_w187_c12
  x_w187_c13
  x_w187_c14
  x_w187_c15
  x_w187_c16
  x_w187_c17
  x_w187_c18
  x_w187_c19
  x_w187_c20
  x_w187_c21
  x_w187_c22
  x_w187_c23
  x_w187_c24
  x_w188_c0
  x_w188_c1
  x_w188_c2
  x_w188_c3
  x_w188_c4
  x_w188_c5
  x_w188_c6
  x_w188_c7
  x_w188_c8
  x_w188_c9
  x_w188_c10
  x_w188_c11
  x_w188_c12
  x_w188_c13
  x_w188_c14
  x_w188_c15
  x_w188_c16
  x_w188_c17
  x_w188_c18
  x_w188_c19
  x_w188_c20
  x_w188_c21
  x_w188_c22
  x_w188_c23
  x_w188_c24
  x_w189_c0
  x_w189_c1
  x_w189_c2
  x_w189_c3
  x_w189_c4
  x_w189_c5
  x_w189_c6
  x_w189_c7
  x_w189_c8
  x_w189_c9
  x_w189_c10
  x_w189_c11
  x_w189_c12
  x_w189_c13
  x_w189_c14
  x_w189_c15
  x_w189_c16
  x_w189_c17
  x_w189_c18
  x_w189_c19
  x_w189_c20
  x_w189_c21
  x_w189_c22
  x_w189_c23
  x_w189_c24
  x_w190_c0
  x_w190_c1
  x_w190_c2
  x_w190_c3
  x_w190_c4
  x_w190_c5
  x_w190_c6
  x_w190_c7
  x_w190_c8
  x_w190_c9
  x_w190_c10
  x_w190_c11
  x_w190_c12
  x_w190_c13
  x_w190_c14
  x_w190_c15
  x_w190_c16
  x_w190_c17
  x_w190_c18
  x_w190_c19
  x_w190_c20
  x_w190_c21
  x_w190_c22
  x_w190_c23
  x_w190_c24
  x_w191_c0
  x_w191_c1
  x_w191_c2
  x_w191_c3
  x_w191_c4
  x_w191_c5
  x_w191_c6
  x_w191_c7
  x_w191_c8
  x_w191_c9
  x_w191_c10
  x_w191_c11
  x_w191_c12
  x_w191_c13
  x_w191_c14
  x_w191_c15
  x_w191_c16
  x_w191_c17
  x_w191_c18
  x_w191_c19
  x_w191_c20
  x_w191_c21
  x_w191_c22
  x_w191_c23
  x_w191_c24
  x_w192_c0
  x_w192_c1
  x_w192_c2
  x_w192_c3
  x_w192_c4
  x_w192_c5
  x_w192_c6
  x_w192_c7
  x_w192_c8
  x_w192_c9
  x_w192_c10
  x_w192_c11
  x_w192_c12
  x_w192_c13
  x_w192_c14
  x_w192_c15
  x_w192_c16
  x_w192_c17
  x_w192_c18
  x_w192_c19
  x_w192_c20
  x_w192_c21
  x_w192_c22
  x_w192_c23
  x_w192_c24
  x_w193_c0
  x_w193_c1
  x_w193_c2
  x_w193_c3
  x_w193_c4
  x_w193_c5
  x_w193_c6
  x_w193_c7
  x_w193_c8
  x_w193_c9
  x_w193_c10
  x_w193_c11
  x_w193_c12
  x_w193_c13
  x_w193_c14
  x_w193_c15
  x_w193_c16
  x_w193_c17
  x_w193_c18
  x_w193_c19
  x_w193_c20
  x_w193_c21
  x_w193_c22
  x_w193_c23
  x_w193_c24
  x_w194_c0
  x_w194_c1
  x_w194_c2
  x_w194_c3
  x_w194_c4
  x_w194_c5
  x_w194_c6
  x_w194_c7
  x_w194_c8
  x_w194_c9
  x_w194_c10
  x_w194_c11
  x_w194_c12
  x_w194_c13
  x_w194_c14
  x_w194_c15
  x_w194_c16
  x_w194_c17
  x_w194_c18
  x_w194_c19
  x_w194_c20
  x_w194_c21
  x_w194_c22
  x_w194_c23
  x_w194_c24
  x_w195_c0
  x_w195_c1
  x_w195_c2
  x_w195_c3
  x_w195_c4
  x_w195_c5
  x_w195_c6
  x_w195_c7
  x_w195_c8
  x_w195_c9
  x_w195_c10
  x_w195_c11
  x_w195_c12
  x_w195_c13
  x_w195_c14
  x_w195_c15
  x_w195_c16
  x_w195_c17
  x_w195_c18
  x_w195_c19
  x_w195_c20
  x_w195_c21
  x_w195_c22
  x_w195_c23
  x_w195_c24
  x_w196_c0
  x_w196_c1
  x_w196_c2
  x_w196_c3
  x_w196_c4
  x_w196_c5
  x_w196_c6
  x_w196_c7
  x_w196_c8
  x_w196_c9
  x_w196_c10
  x_w196_c11
  x_w196_c12
  x_w196_c13
  x_w196_c14
  x_w196_c15
  x_w196_c16
  x_w196_c17
  x_w196_c18
  x_w196_c19
  x_w196_c20
  x_w196_c21
  x_w196_c22
  x_w196_c23
  x_w196_c24
  x_w197_c0
  x_w197_c1
  x_w197_c2
  x_w197_c3
  x_w197_c4
  x_w197_c5
  x_w197_c6
  x_w197_c7
  x_w197_c8
  x_w197_c9
  x_w197_c10
  x_w197_c11
  x_w197_c12
  x_w197_c13
  x_w197_c14
  x_w197_c15
  x_w197_c16
  x_w197_c17
  x_w197_c18
  x_w197_c19
  x_w197_c20
  x_w197_c21
  x_w197_c22
  x_w197_c23
  x_w197_c24
  x_w198_c0
  x_w198_c1
  x_w198_c2
  x_w198_c3
  x_w198_c4
  x_w198_c5
  x_w198_c6
  x_w198_c7
  x_w198_c8
  x_w198_c9
  x_w198_c10
  x_w198_c11
  x_w198_c12
  x_w198_c13
  x_w198_c14
  x_w198_c15
  x_w198_c16
  x_w198_c17
  x_w198_c18
  x_w198_c19
  x_w198_c20
  x_w198_c21
  x_w198_c22
  x_w198_c23
  x_w198_c24
  x_w199_c0
  x_w199_c1
  x_w199_c2
  x_w199_c3
  x_w199_c4
  x_w199_c5
  x_w199_c6
  x_w199_c7
  x_w199_c8
  x_w199_c9
  x_w199_c10
  x_w199_c11
  x_w199_c12
  x_w199_c13
  x_w199_c14
  x_w199_c15
  x_w199_c16
  x_w199_c17
  x_w199_c18
  x_w199_c19
  x_w199_c20
  x_w199_c21
  x_w199_c22
  x_w199_c23
  x_w199_c24
  x_w200_c0
  x_w200_c1
  x_w200_c2
  x_w200_c3
  x_w200_c4
  x_w200_c5
  x_w200_c6
  x_w200_c7
  x_w200_c8
  x_w200_c9
  x_w200_c10
  x_w200_c11
  x_w200_c12
  x_w200_c13
  x_w200_c14
  x_w200_c15
  x_w200_c16
  x_w200_c17
  x_w200_c18
  x_w200_c19
  x_w200_c20
  x_w200_c21
  x_w200_c22
  x_w200_c23
  x_w200_c24
  x_w201_c0
  x_w201_c1
  x_w201_c2
  x_w201_c3
  x_w201_c4
  x_w201_c5
  x_w201_c6
  x_w201_c7
  x_w201_c8
  x_w201_c9
  x_w201_c10
  x_w201_c11
  x_w201_c12
  x_w201_c13
  x_w201_c14
  x_w201_c15
  x_w201_c16
  x_w201_c17
  x_w201_c18
  x_w201_c19
  x_w201_c20
  x_w201_c21
  x_w201_c22
  x_w201_c23
  x_w201_c24
  x_w202_c0
  x_w202_c1
  x_w202_c2
  x_w202_c3
  x_w202_c4
  x_w202_c5
  x_w202_c6
  x_w202_c7
  x_w202_c8
  x_w202_c9
  x_w202_c10
  x_w202_c11
  x_w202_c12
  x_w202_c13
  x_w202_c14
  x_w202_c15
  x_w202_c16
  x_w202_c17
  x_w202_c18
  x_w202_c19
  x_w202_c20
  x_w202_c21
  x_w202_c22
  x_w202_c23
  x_w202_c24
  x_w203_c0
  x_w203_c1
  x_w203_c2
  x_w203_c3
  x_w203_c4
  x_w203_c5
  x_w203_c6
  x_w203_c7
  x_w203_c8
  x_w203_c9
  x_w203_c10
  x_w203_c11
  x_w203_c12
  x_w203_c13
  x_w203_c14
  x_w203_c15
  x_w203_c16
  x_w203_c17
  x_w203_c18
  x_w203_c19
  x_w203_c20
  x_w203_c21
  x_w203_c22
  x_w203_c23
  x_w203_c24
  x_w204_c0
  x_w204_c1
  x_w204_c2
  x_w204_c3
  x_w204_c4
  x_w204_c5
  x_w204_c6
  x_w204_c7
  x_w204_c8
  x_w204_c9
  x_w204_c10
  x_w204_c11
  x_w204_c12
  x_w204_c13
  x_w204_c14
  x_w204_c15
  x_w204_c16
  x_w204_c17
  x_w204_c18
  x_w204_c19
  x_w204_c20
  x_w204_c21
  x_w204_c22
  x_w204_c23
  x_w204_c24
  x_w205_c0
  x_w205_c1
  x_w205_c2
  x_w205_c3
  x_w205_c4
  x_w205_c5
  x_w205_c6
  x_w205_c7
  x_w205_c8
  x_w205_c9
  x_w205_c10
  x_w205_c11
  x_w205_c12
  x_w205_c13
  x_w205_c14
  x_w205_c15
  x_w205_c16
  x_w205_c17
  x_w205_c18
  x_w205_c19
  x_w205_c20
  x_w205_c21
  x_w205_c22
  x_w205_c23
  x_w205_c24
  x_w206_c0
  x_w206_c1
  x_w206_c2
  x_w206_c3
  x_w206_c4
  x_w206_c5
  x_w206_c6
  x_w206_c7
  x_w206_c8
  x_w206_c9
  x_w206_c10
  x_w206_c11
  x_w206_c12
  x_w206_c13
  x_w206_c14
  x_w206_c15
  x_w206_c16
  x_w206_c17
  x_w206_c18
  x_w206_c19
  x_w206_c20
  x_w206_c21
  x_w206_c22
  x_w206_c23
  x_w206_c24
  x_w207_c0
  x_w207_c1
  x_w207_c2
  x_w207_c3
  x_w207_c4
  x_w207_c5
  x_w207_c6
  x_w207_c7
  x_w207_c8
  x_w207_c9
  x_w207_c10
  x_w207_c11
  x_w207_c12
  x_w207_c13
  x_w207_c14
  x_w207_c15
  x_w207_c16
  x_w207_c17
  x_w207_c18
  x_w207_c19
  x_w207_c20
  x_w207_c21
  x_w207_c22
  x_w207_c23
  x_w207_c24
  x_w208_c0
  x_w208_c1
  x_w208_c2
  x_w208_c3
  x_w208_c4
  x_w208_c5
  x_w208_c6
  x_w208_c7
  x_w208_c8
  x_w208_c9
  x_w208_c10
  x_w208_c11
  x_w208_c12
  x_w208_c13
  x_w208_c14
  x_w208_c15
  x_w208_c16
  x_w208_c17
  x_w208_c18
  x_w208_c19
  x_w208_c20
  x_w208_c21
  x_w208_c22
  x_w208_c23
  x_w208_c24
  x_w209_c0
  x_w209_c1
  x_w209_c2
  x_w209_c3
  x_w209_c4
  x_w209_c5
  x_w209_c6
  x_w209_c7
  x_w209_c8
  x_w209_c9
  x_w209_c10
  x_w209_c11
  x_w209_c12
  x_w209_c13
  x_w209_c14
  x_w209_c15
  x_w209_c16
  x_w209_c17
  x_w209_c18
  x_w209_c19
  x_w209_c20
  x_w209_c21
  x_w209_c22
  x_w209_c23
  x_w209_c24
  x_w210_c0
  x_w210_c1
  x_w210_c2
  x_w210_c3
  x_w210_c4
  x_w210_c5
  x_w210_c6
  x_w210_c7
  x_w210_c8
  x_w210_c9
  x_w210_c10
  x_w210_c11
  x_w210_c12
  x_w210_c13
  x_w210_c14
  x_w210_c15
  x_w210_c16
  x_w210_c17
  x_w210_c18
  x_w210_c19
  x_w210_c20
  x_w210_c21
  x_w210_c22
  x_w210_c23
  x_w210_c24
  x_w211_c0
  x_w211_c1
  x_w211_c2
  x_w211_c3
  x_w211_c4
  x_w211_c5
  x_w211_c6
  x_w211_c7
  x_w211_c8
  x_w211_c9
  x_w211_c10
  x_w211_c11
  x_w211_c12
  x_w211_c13
  x_w211_c14
  x_w211_c15
  x_w211_c16
  x_w211_c17
  x_w211_c18
  x_w211_c19
  x_w211_c20
  x_w211_c21
  x_w211_c22
  x_w211_c23
  x_w211_c24
  x_w212_c0
  x_w212_c1
  x_w212_c2
  x_w212_c3
  x_w212_c4
  x_w212_c5
  x_w212_c6
  x_w212_c7
  x_w212_c8
  x_w212_c9
  x_w212_c10
  x_w212_c11
  x_w212_c12
  x_w212_c13
  x_w212_c14
  x_w212_c15
  x_w212_c16
  x_w212_c17
  x_w212_c18
  x_w212_c19
  x_w212_c20
  x_w212_c21
  x_w212_c22
  x_w212_c23
  x_w212_c24
  x_w213_c0
  x_w213_c1
  x_w213_c2
  x_w213_c3
  x_w213_c4
  x_w213_c5
  x_w213_c6
  x_w213_c7
  x_w213_c8
  x_w213_c9
  x_w213_c10
  x_w213_c11
  x_w213_c12
  x_w213_c13
  x_w213_c14
  x_w213_c15
  x_w213_c16
  x_w213_c17
  x_w213_c18
  x_w213_c19
  x_w213_c20
  x_w213_c21
  x_w213_c22
  x_w213_c23
  x_w213_c24
  x_w214_c0
  x_w214_c1
  x_w214_c2
  x_w214_c3
  x_w214_c4
  x_w214_c5
  x_w214_c6
  x_w214_c7
  x_w214_c8
  x_w214_c9
  x_w214_c10
  x_w214_c11
  x_w214_c12
  x_w214_c13
  x_w214_c14
  x_w214_c15
  x_w214_c16
  x_w214_c17
  x_w214_c18
  x_w214_c19
  x_w214_c20
  x_w214_c21
  x_w214_c22
  x_w214_c23
  x_w214_c24
  x_w215_c0
  x_w215_c1
  x_w215_c2
  x_w215_c3
  x_w215_c4
  x_w215_c5
  x_w215_c6
  x_w215_c7
  x_w215_c8
  x_w215_c9
  x_w215_c10
  x_w215_c11
  x_w215_c12
  x_w215_c13
  x_w215_c14
  x_w215_c15
  x_w215_c16
  x_w215_c17
  x_w215_c18
  x_w215_c19
  x_w215_c20
  x_w215_c21
  x_w215_c22
  x_w215_c23
  x_w215_c24
  x_w216_c0
  x_w216_c1
  x_w216_c2
  x_w216_c3
  x_w216_c4
  x_w216_c5
  x_w216_c6
  x_w216_c7
  x_w216_c8
  x_w216_c9
  x_w216_c10
  x_w216_c11
  x_w216_c12
  x_w216_c13
  x_w216_c14
  x_w216_c15
  x_w216_c16
  x_w216_c17
  x_w216_c18
  x_w216_c19
  x_w216_c20
  x_w216_c21
  x_w216_c22
  x_w216_c23
  x_w216_c24
  x_w217_c0
  x_w217_c1
  x_w217_c2
  x_w217_c3
  x_w217_c4
  x_w217_c5
  x_w217_c6
  x_w217_c7
  x_w217_c8
  x_w217_c9
  x_w217_c10
  x_w217_c11
  x_w217_c12
  x_w217_c13
  x_w217_c14
  x_w217_c15
  x_w217_c16
  x_w217_c17
  x_w217_c18
  x_w217_c19
  x_w217_c20
  x_w217_c21
  x_w217_c22
  x_w217_c23
  x_w217_c24
  x_w218_c0
  x_w218_c1
  x_w218_c2
  x_w218_c3
  x_w218_c4
  x_w218_c5
  x_w218_c6
  x_w218_c7
  x_w218_c8
  x_w218_c9
  x_w218_c10
  x_w218_c11
  x_w218_c12
  x_w218_c13
  x_w218_c14
  x_w218_c15
  x_w218_c16
  x_w218_c17
  x_w218_c18
  x_w218_c19
  x_w218_c20
  x_w218_c21
  x_w218_c22
  x_w218_c23
  x_w218_c24
  x_w219_c0
  x_w219_c1
  x_w219_c2
  x_w219_c3
  x_w219_c4
  x_w219_c5
  x_w219_c6
  x_w219_c7
  x_w219_c8
  x_w219_c9
  x_w219_c10
  x_w219_c11
  x_w219_c12
  x_w219_c13
  x_w219_c14
  x_w219_c15
  x_w219_c16
  x_w219_c17
  x_w219_c18
  x_w219_c19
  x_w219_c20
  x_w219_c21
  x_w219_c22
  x_w219_c23
  x_w219_c24
  x_w220_c0
  x_w220_c1
  x_w220_c2
  x_w220_c3
  x_w220_c4
  x_w220_c5
  x_w220_c6
  x_w220_c7
  x_w220_c8
  x_w220_c9
  x_w220_c10
  x_w220_c11
  x_w220_c12
  x_w220_c13
  x_w220_c14
  x_w220_c15
  x_w220_c16
  x_w220_c17
  x_w220_c18
  x_w220_c19
  x_w220_c20
  x_w220_c21
  x_w220_c22
  x_w220_c23
  x_w220_c24
  x_w221_c0
  x_w221_c1
  x_w221_c2
  x_w221_c3
  x_w221_c4
  x_w221_c5
  x_w221_c6
  x_w221_c7
  x_w221_c8
  x_w221_c9
  x_w221_c10
  x_w221_c11
  x_w221_c12
  x_w221_c13
  x_w221_c14
  x_w221_c15
  x_w221_c16
  x_w221_c17
  x_w221_c18
  x_w221_c19
  x_w221_c20
  x_w221_c21
  x_w221_c22
  x_w221_c23
  x_w221_c24
  x_w222_c0
  x_w222_c1
  x_w222_c2
  x_w222_c3
  x_w222_c4
  x_w222_c5
  x_w222_c6
  x_w222_c7
  x_w222_c8
  x_w222_c9
  x_w222_c10
  x_w222_c11
  x_w222_c12
  x_w222_c13
  x_w222_c14
  x_w222_c15
  x_w222_c16
  x_w222_c17
  x_w222_c18
  x_w222_c19
  x_w222_c20
  x_w222_c21
  x_w222_c22
  x_w222_c23
  x_w222_c24
  x_w223_c0
  x_w223_c1
  x_w223_c2
  x_w223_c3
  x_w223_c4
  x_w223_c5
  x_w223_c6
  x_w223_c7
  x_w223_c8
  x_w223_c9
  x_w223_c10
  x_w223_c11
  x_w223_c12
  x_w223_c13
  x_w223_c14
  x_w223_c15
  x_w223_c16
  x_w223_c17
  x_w223_c18
  x_w223_c19
  x_w223_c20
  x_w223_c21
  x_w223_c22
  x_w223_c23
  x_w223_c24
  x_w224_c0
  x_w224_c1
  x_w224_c2
  x_w224_c3
  x_w224_c4
  x_w224_c5
  x_w224_c6
  x_w224_c7
  x_w224_c8
  x_w224_c9
  x_w224_c10
  x_w224_c11
  x_w224_c12
  x_w224_c13
  x_w224_c14
  x_w224_c15
  x_w224_c16
  x_w224_c17
  x_w224_c18
  x_w224_c19
  x_w224_c20
  x_w224_c21
  x_w224_c22
  x_w224_c23
  x_w224_c24
  x_w225_c0
  x_w225_c1
  x_w225_c2
  x_w225_c3
  x_w225_c4
  x_w225_c5
  x_w225_c6
  x_w225_c7
  x_w225_c8
  x_w225_c9
  x_w225_c10
  x_w225_c11
  x_w225_c12
  x_w225_c13
  x_w225_c14
  x_w225_c15
  x_w225_c16
  x_w225_c17
  x_w225_c18
  x_w225_c19
  x_w225_c20
  x_w225_c21
  x_w225_c22
  x_w225_c23
  x_w225_c24
  x_w226_c0
  x_w226_c1
  x_w226_c2
  x_w226_c3
  x_w226_c4
  x_w226_c5
  x_w226_c6
  x_w226_c7
  x_w226_c8
  x_w226_c9
  x_w226_c10
  x_w226_c11
  x_w226_c12
  x_w226_c13
  x_w226_c14
  x_w226_c15
  x_w226_c16
  x_w226_c17
  x_w226_c18
  x_w226_c19
  x_w226_c20
  x_w226_c21
  x_w226_c22
  x_w226_c23
  x_w226_c24
  x_w227_c0
  x_w227_c1
  x_w227_c2
  x_w227_c3
  x_w227_c4
  x_w227_c5
  x_w227_c6
  x_w227_c7
  x_w227_c8
  x_w227_c9
  x_w227_c10
  x_w227_c11
  x_w227_c12
  x_w227_c13
  x_w227_c14
  x_w227_c15
  x_w227_c16
  x_w227_c17
  x_w227_c18
  x_w227_c19
  x_w227_c20
  x_w227_c21
  x_w227_c22
  x_w227_c23
  x_w227_c24
  x_w228_c0
  x_w228_c1
  x_w228_c2
  x_w228_c3
  x_w228_c4
  x_w228_c5
  x_w228_c6
  x_w228_c7
  x_w228_c8
  x_w228_c9
  x_w228_c10
  x_w228_c11
  x_w228_c12
  x_w228_c13
  x_w228_c14
  x_w228_c15
  x_w228_c16
  x_w228_c17
  x_w228_c18
  x_w228_c19
  x_w228_c20
  x_w228_c21
  x_w228_c22
  x_w228_c23
  x_w228_c24
  x_w229_c0
  x_w229_c1
  x_w229_c2
  x_w229_c3
  x_w229_c4
  x_w229_c5
  x_w229_c6
  x_w229_c7
  x_w229_c8
  x_w229_c9
  x_w229_c10
  x_w229_c11
  x_w229_c12
  x_w229_c13
  x_w229_c14
  x_w229_c15
  x_w229_c16
  x_w229_c17
  x_w229_c18
  x_w229_c19
  x_w229_c20
  x_w229_c21
  x_w229_c22
  x_w229_c23
  x_w229_c24
  x_w230_c0
  x_w230_c1
  x_w230_c2
  x_w230_c3
  x_w230_c4
  x_w230_c5
  x_w230_c6
  x_w230_c7
  x_w230_c8
  x_w230_c9
  x_w230_c10
  x_w230_c11
  x_w230_c12
  x_w230_c13
  x_w230_c14
  x_w230_c15
  x_w230_c16
  x_w230_c17
  x_w230_c18
  x_w230_c19
  x_w230_c20
  x_w230_c21
  x_w230_c22
  x_w230_c23
  x_w230_c24
  x_w231_c0
  x_w231_c1
  x_w231_c2
  x_w231_c3
  x_w231_c4
  x_w231_c5
  x_w231_c6
  x_w231_c7
  x_w231_c8
  x_w231_c9
  x_w231_c10
  x_w231_c11
  x_w231_c12
  x_w231_c13
  x_w231_c14
  x_w231_c15
  x_w231_c16
  x_w231_c17
  x_w231_c18
  x_w231_c19
  x_w231_c20
  x_w231_c21
  x_w231_c22
  x_w231_c23
  x_w231_c24
  x_w232_c0
  x_w232_c1
  x_w232_c2
  x_w232_c3
  x_w232_c4
  x_w232_c5
  x_w232_c6
  x_w232_c7
  x_w232_c8
  x_w232_c9
  x_w232_c10
  x_w232_c11
  x_w232_c12
  x_w232_c13
  x_w232_c14
  x_w232_c15
  x_w232_c16
  x_w232_c17
  x_w232_c18
  x_w232_c19
  x_w232_c20
  x_w232_c21
  x_w232_c22
  x_w232_c23
  x_w232_c24
  x_w233_c0
  x_w233_c1
  x_w233_c2
  x_w233_c3
  x_w233_c4
  x_w233_c5
  x_w233_c6
  x_w233_c7
  x_w233_c8
  x_w233_c9
  x_w233_c10
  x_w233_c11
  x_w233_c12
  x_w233_c13
  x_w233_c14
  x_w233_c15
  x_w233_c16
  x_w233_c17
  x_w233_c18
  x_w233_c19
  x_w233_c20
  x_w233_c21
  x_w233_c22
  x_w233_c23
  x_w233_c24
  x_w234_c0
  x_w234_c1
  x_w234_c2
  x_w234_c3
  x_w234_c4
  x_w234_c5
  x_w234_c6
  x_w234_c7
  x_w234_c8
  x_w234_c9
  x_w234_c10
  x_w234_c11
  x_w234_c12
  x_w234_c13
  x_w234_c14
  x_w234_c15
  x_w234_c16
  x_w234_c17
  x_w234_c18
  x_w234_c19
  x_w234_c20
  x_w234_c21
  x_w234_c22
  x_w234_c23
  x_w234_c24
  x_w235_c0
  x_w235_c1
  x_w235_c2
  x_w235_c3
  x_w235_c4
  x_w235_c5
  x_w235_c6
  x_w235_c7
  x_w235_c8
  x_w235_c9
  x_w235_c10
  x_w235_c11
  x_w235_c12
  x_w235_c13
  x_w235_c14
  x_w235_c15
  x_w235_c16
  x_w235_c17
  x_w235_c18
  x_w235_c19
  x_w235_c20
  x_w235_c21
  x_w235_c22
  x_w235_c23
  x_w235_c24
  x_w236_c0
  x_w236_c1
  x_w236_c2
  x_w236_c3
  x_w236_c4
  x_w236_c5
  x_w236_c6
  x_w236_c7
  x_w236_c8
  x_w236_c9
  x_w236_c10
  x_w236_c11
  x_w236_c12
  x_w236_c13
  x_w236_c14
  x_w236_c15
  x_w236_c16
  x_w236_c17
  x_w236_c18
  x_w236_c19
  x_w236_c20
  x_w236_c21
  x_w236_c22
  x_w236_c23
  x_w236_c24
  x_w237_c0
  x_w237_c1
  x_w237_c2
  x_w237_c3
  x_w237_c4
  x_w237_c5
  x_w237_c6
  x_w237_c7
  x_w237_c8
  x_w237_c9
  x_w237_c10
  x_w237_c11
  x_w237_c12
  x_w237_c13
  x_w237_c14
  x_w237_c15
  x_w237_c16
  x_w237_c17
  x_w237_c18
  x_w237_c19
  x_w237_c20
  x_w237_c21
  x_w237_c22
  x_w237_c23
  x_w237_c24
  x_w238_c0
  x_w238_c1
  x_w238_c2
  x_w238_c3
  x_w238_c4
  x_w238_c5
  x_w238_c6
  x_w238_c7
  x_w238_c8
  x_w238_c9
  x_w238_c10
  x_w238_c11
  x_w238_c12
  x_w238_c13
  x_w238_c14
  x_w238_c15
  x_w238_c16
  x_w238_c17
  x_w238_c18
  x_w238_c19
  x_w238_c20
  x_w238_c21
  x_w238_c22
  x_w238_c23
  x_w238_c24
  x_w239_c0
  x_w239_c1
  x_w239_c2
  x_w239_c3
  x_w239_c4
  x_w239_c5
  x_w239_c6
  x_w239_c7
  x_w239_c8
  x_w239_c9
  x_w239_c10
  x_w239_c11
  x_w239_c12
  x_w239_c13
  x_w239_c14
  x_w239_c15
  x_w239_c16
  x_w239_c17
  x_w239_c18
  x_w239_c19
  x_w239_c20
  x_w239_c21
  x_w239_c22
  x_w239_c23
  x_w239_c24
  x_w240_c0
  x_w240_c1
  x_w240_c2
  x_w240_c3
  x_w240_c4
  x_w240_c5
  x_w240_c6
  x_w240_c7
  x_w240_c8
  x_w240_c9
  x_w240_c10
  x_w240_c11
  x_w240_c12
  x_w240_c13
  x_w240_c14
  x_w240_c15
  x_w240_c16
  x_w240_c17
  x_w240_c18
  x_w240_c19
  x_w240_c20
  x_w240_c21
  x_w240_c22
  x_w240_c23
  x_w240_c24
  x_w241_c0
  x_w241_c1
  x_w241_c2
  x_w241_c3
  x_w241_c4
  x_w241_c5
  x_w241_c6
  x_w241_c7
  x_w241_c8
  x_w241_c9
  x_w241_c10
  x_w241_c11
  x_w241_c12
  x_w241_c13
  x_w241_c14
  x_w241_c15
  x_w241_c16
  x_w241_c17
  x_w241_c18
  x_w241_c19
  x_w241_c20
  x_w241_c21
  x_w241_c22
  x_w241_c23
  x_w241_c24
  x_w242_c0
  x_w242_c1
  x_w242_c2
  x_w242_c3
  x_w242_c4
  x_w242_c5
  x_w242_c6
  x_w242_c7
  x_w242_c8
  x_w242_c9
  x_w242_c10
  x_w242_c11
  x_w242_c12
  x_w242_c13
  x_w242_c14
  x_w242_c15
  x_w242_c16
  x_w242_c17
  x_w242_c18
  x_w242_c19
  x_w242_c20
  x_w242_c21
  x_w242_c22
  x_w242_c23
  x_w242_c24
  x_w243_c0
  x_w243_c1
  x_w243_c2
  x_w243_c3
  x_w243_c4
  x_w243_c5
  x_w243_c6
  x_w243_c7
  x_w243_c8
  x_w243_c9
  x_w243_c10
  x_w243_c11
  x_w243_c12
  x_w243_c13
  x_w243_c14
  x_w243_c15
  x_w243_c16
  x_w243_c17
  x_w243_c18
  x_w243_c19
  x_w243_c20
  x_w243_c21
  x_w243_c22
  x_w243_c23
  x_w243_c24
  x_w244_c0
  x_w244_c1
  x_w244_c2
  x_w244_c3
  x_w244_c4
  x_w244_c5
  x_w244_c6
  x_w244_c7
  x_w244_c8
  x_w244_c9
  x_w244_c10
  x_w244_c11
  x_w244_c12
  x_w244_c13
  x_w244_c14
  x_w244_c15
  x_w244_c16
  x_w244_c17
  x_w244_c18
  x_w244_c19
  x_w244_c20
  x_w244_c21
  x_w244_c22
  x_w244_c23
  x_w244_c24
  x_w245_c0
  x_w245_c1
  x_w245_c2
  x_w245_c3
  x_w245_c4
  x_w245_c5
  x_w245_c6
  x_w245_c7
  x_w245_c8
  x_w245_c9
  x_w245_c10
  x_w245_c11
  x_w245_c12
  x_w245_c13
  x_w245_c14
  x_w245_c15
  x_w245_c16
  x_w245_c17
  x_w245_c18
  x_w245_c19
  x_w245_c20
  x_w245_c21
  x_w245_c22
  x_w245_c23
  x_w245_c24
  x_w246_c0
  x_w246_c1
  x_w246_c2
  x_w246_c3
  x_w246_c4
  x_w246_c5
  x_w246_c6
  x_w246_c7
  x_w246_c8
  x_w246_c9
  x_w246_c10
  x_w246_c11
  x_w246_c12
  x_w246_c13
  x_w246_c14
  x_w246_c15
  x_w246_c16
  x_w246_c17
  x_w246_c18
  x_w246_c19
  x_w246_c20
  x_w246_c21
  x_w246_c22
  x_w246_c23
  x_w246_c24
  x_w247_c0
  x_w247_c1
  x_w247_c2
  x_w247_c3
  x_w247_c4
  x_w247_c5
  x_w247_c6
  x_w247_c7
  x_w247_c8
  x_w247_c9
  x_w247_c10
  x_w247_c11
  x_w247_c12
  x_w247_c13
  x_w247_c14
  x_w247_c15
  x_w247_c16
  x_w247_c17
  x_w247_c18
  x_w247_c19
  x_w247_c20
  x_w247_c21
  x_w247_c22
  x_w247_c23
  x_w247_c24
  x_w248_c0
  x_w248_c1
  x_w248_c2
  x_w248_c3
  x_w248_c4
  x_w248_c5
  x_w248_c6
  x_w248_c7
  x_w248_c8
  x_w248_c9
  x_w248_c10
  x_w248_c11
  x_w248_c12
  x_w248_c13
  x_w248_c14
  x_w248_c15
  x_w248_c16
  x_w248_c17
  x_w248_c18
  x_w248_c19
  x_w248_c20
  x_w248_c21
  x_w248_c22
  x_w248_c23
  x_w248_c24
  x_w249_c0
  x_w249_c1
  x_w249_c2
  x_w249_c3
  x_w249_c4
  x_w249_c5
  x_w249_c6
  x_w249_c7
  x_w249_c8
  x_w249_c9
  x_w249_c10
  x_w249_c11
  x_w249_c12
  x_w249_c13
  x_w249_c14
  x_w249_c15
  x_w249_c16
  x_w249_c17
  x_w249_c18
  x_w249_c19
  x_w249_c20
  x_w249_c21
  x_w249_c22
  x_w249_c23
  x_w249_c24
End